%%MatrixMarket matrix coordinate integer symmetric
%%GraphBLAS type uint32_t
2003 2003 8713
868 863 37
869 863 37
870 863 37
871 863 37
872 863 37
910 863 37
911 863 37
915 863 37
916 863 37
917 863 37
918 863 37
919 863 37
869 868 37
870 868 37
871 868 37
872 868 37
910 868 37
911 868 37
915 868 37
916 868 37
917 868 37
918 868 37
919 868 37
870 869 37
871 869 37
872 869 37
910 869 37
911 869 37
915 869 37
916 869 37
917 869 37
918 869 37
919 869 37
871 870 37
872 870 37
910 870 37
911 870 37
915 870 37
916 870 37
917 870 37
918 870 37
919 870 37
872 871 37
910 871 37
911 871 37
915 871 37
916 871 37
917 871 37
918 871 37
919 871 37
910 872 37
911 872 37
915 872 37
916 872 37
917 872 37
918 872 37
919 872 37
891 886 37
892 886 37
893 886 37
894 886 37
895 886 37
934 886 37
935 886 37
936 886 37
937 886 37
938 886 37
939 886 37
940 886 37
892 891 37
893 891 37
894 891 37
895 891 37
934 891 37
935 891 37
936 891 37
937 891 37
938 891 37
939 891 37
940 891 37
893 892 37
894 892 37
895 892 37
934 892 37
935 892 37
936 892 37
937 892 37
938 892 37
939 892 37
940 892 37
894 893 37
895 893 37
934 893 37
935 893 37
936 893 37
937 893 37
938 893 37
939 893 37
940 893 37
895 894 37
934 894 37
935 894 37
936 894 37
937 894 37
938 894 37
939 894 37
940 894 37
934 895 37
935 895 37
936 895 37
937 895 37
938 895 37
939 895 37
940 895 37
897 896 38
902 896 38
903 896 38
904 896 38
905 896 38
906 896 38
910 896 38
911 896 38
915 896 38
916 896 38
917 896 38
918 896 38
919 896 38
944 896 26
945 896 26
950 896 26
951 896 26
952 896 26
953 896 26
954 896 26
1079 896 26
1080 896 26
1081 896 26
1082 896 26
1083 896 26
1084 896 26
1085 896 26
902 897 38
903 897 38
904 897 38
905 897 38
906 897 38
910 897 38
911 897 38
915 897 38
916 897 38
917 897 38
918 897 38
919 897 38
944 897 26
945 897 26
950 897 26
951 897 26
952 897 26
953 897 26
954 897 26
1079 897 26
1080 897 26
1081 897 26
1082 897 26
1083 897 26
1084 897 26
1085 897 26
903 902 38
904 902 38
905 902 38
906 902 38
910 902 38
911 902 38
915 902 38
916 902 38
917 902 38
918 902 38
919 902 38
944 902 26
945 902 26
950 902 26
951 902 26
952 902 26
953 902 26
954 902 26
1079 902 26
1080 902 26
1081 902 26
1082 902 26
1083 902 26
1084 902 26
1085 902 26
904 903 38
905 903 38
906 903 38
910 903 38
911 903 38
915 903 38
916 903 38
917 903 38
918 903 38
919 903 38
944 903 26
945 903 26
950 903 26
951 903 26
952 903 26
953 903 26
954 903 26
1079 903 26
1080 903 26
1081 903 26
1082 903 26
1083 903 26
1084 903 26
1085 903 26
905 904 38
906 904 38
910 904 38
911 904 38
915 904 38
916 904 38
917 904 38
918 904 38
919 904 38
944 904 26
945 904 26
950 904 26
951 904 26
952 904 26
953 904 26
954 904 26
1079 904 26
1080 904 26
1081 904 26
1082 904 26
1083 904 26
1084 904 26
1085 904 26
906 905 38
910 905 38
911 905 38
915 905 38
916 905 38
917 905 38
918 905 38
919 905 38
944 905 26
945 905 26
950 905 26
951 905 26
952 905 26
953 905 26
954 905 26
1079 905 26
1080 905 26
1081 905 26
1082 905 26
1083 905 26
1084 905 26
1085 905 26
910 906 38
911 906 38
915 906 38
916 906 38
917 906 38
918 906 38
919 906 38
944 906 26
945 906 26
950 906 26
951 906 26
952 906 26
953 906 26
954 906 26
1079 906 26
1080 906 26
1081 906 26
1082 906 26
1083 906 26
1084 906 26
1085 906 26
911 910 58
915 910 58
916 910 58
917 910 58
918 910 58
919 910 58
944 910 26
945 910 26
950 910 26
951 910 26
952 910 26
953 910 26
954 910 26
1079 910 40
1080 910 40
1081 910 40
1082 910 40
1083 910 40
1084 910 40
1085 910 40
1217 910 38
1218 910 38
1219 910 38
1220 910 38
1221 910 37
1222 910 38
1223 910 38
1228 910 26
1229 910 25
1230 910 26
1231 910 26
1232 910 26
1233 910 26
1234 910 26
915 911 58
916 911 58
917 911 58
918 911 58
919 911 58
944 911 26
945 911 26
950 911 26
951 911 26
952 911 26
953 911 26
954 911 26
1079 911 40
1080 911 40
1081 911 40
1082 911 40
1083 911 40
1084 911 40
1085 911 40
1217 911 38
1218 911 38
1219 911 38
1220 911 38
1221 911 37
1222 911 38
1223 911 38
1228 911 26
1229 911 25
1230 911 26
1231 911 26
1232 911 26
1233 911 26
1234 911 26
916 915 58
917 915 58
918 915 58
919 915 58
944 915 26
945 915 26
950 915 26
951 915 26
952 915 26
953 915 26
954 915 26
1079 915 40
1080 915 40
1081 915 40
1082 915 40
1083 915 40
1084 915 40
1085 915 40
1217 915 38
1218 915 38
1219 915 38
1220 915 38
1221 915 37
1222 915 38
1223 915 38
1228 915 26
1229 915 25
1230 915 26
1231 915 26
1232 915 26
1233 915 26
1234 915 26
917 916 58
918 916 58
919 916 58
944 916 26
945 916 26
950 916 26
951 916 26
952 916 26
953 916 26
954 916 26
1079 916 40
1080 916 40
1081 916 40
1082 916 40
1083 916 40
1084 916 40
1085 916 40
1217 916 38
1218 916 38
1219 916 38
1220 916 38
1221 916 37
1222 916 38
1223 916 38
1228 916 26
1229 916 25
1230 916 26
1231 916 26
1232 916 26
1233 916 26
1234 916 26
918 917 58
919 917 58
944 917 26
945 917 26
950 917 26
951 917 26
952 917 26
953 917 26
954 917 26
1079 917 40
1080 917 40
1081 917 40
1082 917 40
1083 917 40
1084 917 40
1085 917 40
1217 917 38
1218 917 38
1219 917 38
1220 917 38
1221 917 37
1222 917 38
1223 917 38
1228 917 26
1229 917 25
1230 917 26
1231 917 26
1232 917 26
1233 917 26
1234 917 26
919 918 58
944 918 26
945 918 26
950 918 26
951 918 26
952 918 26
953 918 26
954 918 26
1079 918 40
1080 918 40
1081 918 40
1082 918 40
1083 918 40
1084 918 40
1085 918 40
1217 918 38
1218 918 38
1219 918 38
1220 918 38
1221 918 37
1222 918 38
1223 918 38
1228 918 26
1229 918 25
1230 918 26
1231 918 26
1232 918 26
1233 918 26
1234 918 26
944 919 26
945 919 26
950 919 26
951 919 26
952 919 26
953 919 26
954 919 26
1079 919 40
1080 919 40
1081 919 40
1082 919 40
1083 919 40
1084 919 40
1085 919 40
1217 919 38
1218 919 38
1219 919 38
1220 919 38
1221 919 37
1222 919 38
1223 919 38
1228 919 26
1229 919 25
1230 919 26
1231 919 26
1232 919 26
1233 919 26
1234 919 26
924 923 38
925 923 38
926 923 38
927 923 38
928 923 38
929 923 38
934 923 38
935 923 38
936 923 38
937 923 38
938 923 38
939 923 38
940 923 38
1006 923 26
1007 923 26
1010 923 26
1011 923 26
1012 923 26
1026 923 26
1027 923 26
1032 923 26
1033 923 26
1034 923 26
1035 923 26
1039 923 26
1040 923 26
1041 923 26
925 924 38
926 924 38
927 924 38
928 924 38
929 924 38
934 924 38
935 924 38
936 924 38
937 924 38
938 924 38
939 924 38
940 924 38
1006 924 26
1007 924 26
1010 924 26
1011 924 26
1012 924 26
1026 924 26
1027 924 26
1032 924 26
1033 924 26
1034 924 26
1035 924 26
1039 924 26
1040 924 26
1041 924 26
926 925 38
927 925 38
928 925 38
929 925 38
934 925 38
935 925 38
936 925 38
937 925 38
938 925 38
939 925 38
940 925 38
1006 925 26
1007 925 26
1010 925 26
1011 925 26
1012 925 26
1026 925 26
1027 925 26
1032 925 26
1033 925 26
1034 925 26
1035 925 26
1039 925 26
1040 925 26
1041 925 26
927 926 38
928 926 38
929 926 38
934 926 38
935 926 38
936 926 38
937 926 38
938 926 38
939 926 38
940 926 38
1006 926 26
1007 926 26
1010 926 26
1011 926 26
1012 926 26
1026 926 26
1027 926 26
1032 926 26
1033 926 26
1034 926 26
1035 926 26
1039 926 26
1040 926 26
1041 926 26
928 927 38
929 927 38
934 927 38
935 927 38
936 927 38
937 927 38
938 927 38
939 927 38
940 927 38
1006 927 26
1007 927 26
1010 927 26
1011 927 26
1012 927 26
1026 927 26
1027 927 26
1032 927 26
1033 927 26
1034 927 26
1035 927 26
1039 927 26
1040 927 26
1041 927 26
929 928 38
934 928 38
935 928 38
936 928 38
937 928 38
938 928 38
939 928 38
940 928 38
1006 928 26
1007 928 26
1010 928 26
1011 928 26
1012 928 26
1026 928 26
1027 928 26
1032 928 26
1033 928 26
1034 928 26
1035 928 26
1039 928 26
1040 928 26
1041 928 26
934 929 38
935 929 38
936 929 38
937 929 38
938 929 38
939 929 38
940 929 38
1006 929 26
1007 929 26
1010 929 26
1011 929 26
1012 929 26
1026 929 26
1027 929 26
1032 929 26
1033 929 26
1034 929 26
1035 929 26
1039 929 26
1040 929 26
1041 929 26
935 934 58
936 934 58
937 934 58
938 934 58
939 934 58
940 934 58
1006 934 26
1007 934 26
1010 934 26
1011 934 26
1012 934 26
1026 934 26
1027 934 26
1032 934 40
1033 934 40
1034 934 40
1035 934 40
1039 934 40
1040 934 40
1041 934 40
1159 934 26
1160 934 26
1161 934 26
1162 934 26
1163 934 26
1164 934 26
1165 934 26
1170 934 38
1171 934 38
1172 934 38
1173 934 38
1174 934 38
1175 934 38
1176 934 38
936 935 58
937 935 58
938 935 58
939 935 58
940 935 58
1006 935 26
1007 935 26
1010 935 26
1011 935 26
1012 935 26
1026 935 26
1027 935 26
1032 935 40
1033 935 40
1034 935 40
1035 935 40
1039 935 40
1040 935 40
1041 935 40
1159 935 26
1160 935 26
1161 935 26
1162 935 26
1163 935 26
1164 935 26
1165 935 26
1170 935 38
1171 935 38
1172 935 38
1173 935 38
1174 935 38
1175 935 38
1176 935 38
937 936 58
938 936 58
939 936 58
940 936 58
1006 936 26
1007 936 26
1010 936 26
1011 936 26
1012 936 26
1026 936 26
1027 936 26
1032 936 40
1033 936 40
1034 936 40
1035 936 40
1039 936 40
1040 936 40
1041 936 40
1159 936 26
1160 936 26
1161 936 26
1162 936 26
1163 936 26
1164 936 26
1165 936 26
1170 936 38
1171 936 38
1172 936 38
1173 936 38
1174 936 38
1175 936 38
1176 936 38
938 937 58
939 937 58
940 937 58
1006 937 26
1007 937 26
1010 937 26
1011 937 26
1012 937 26
1026 937 26
1027 937 26
1032 937 40
1033 937 40
1034 937 40
1035 937 40
1039 937 40
1040 937 40
1041 937 40
1159 937 26
1160 937 26
1161 937 26
1162 937 26
1163 937 26
1164 937 26
1165 937 26
1170 937 38
1171 937 38
1172 937 38
1173 937 38
1174 937 38
1175 937 38
1176 937 38
939 938 58
940 938 58
1006 938 26
1007 938 26
1010 938 26
1011 938 26
1012 938 26
1026 938 26
1027 938 26
1032 938 40
1033 938 40
1034 938 40
1035 938 40
1039 938 40
1040 938 40
1041 938 40
1159 938 26
1160 938 26
1161 938 26
1162 938 26
1163 938 26
1164 938 26
1165 938 26
1170 938 38
1171 938 38
1172 938 38
1173 938 38
1174 938 38
1175 938 38
1176 938 38
940 939 58
1006 939 26
1007 939 26
1010 939 26
1011 939 26
1012 939 26
1026 939 26
1027 939 26
1032 939 40
1033 939 40
1034 939 40
1035 939 40
1039 939 40
1040 939 40
1041 939 40
1159 939 26
1160 939 26
1161 939 26
1162 939 26
1163 939 26
1164 939 26
1165 939 26
1170 939 38
1171 939 38
1172 939 38
1173 939 38
1174 939 38
1175 939 38
1176 939 38
1006 940 26
1007 940 26
1010 940 26
1011 940 26
1012 940 26
1026 940 26
1027 940 26
1032 940 40
1033 940 40
1034 940 40
1035 940 40
1039 940 40
1040 940 40
1041 940 40
1159 940 26
1160 940 26
1161 940 26
1162 940 26
1163 940 26
1164 940 26
1165 940 26
1170 940 38
1171 940 38
1172 940 38
1173 940 38
1174 940 38
1175 940 38
1176 940 38
945 944 40
950 944 40
951 944 40
952 944 40
953 944 40
954 944 40
958 944 26
959 944 26
964 944 26
965 944 26
966 944 26
967 944 26
968 944 26
1079 944 40
1080 944 40
1081 944 40
1082 944 40
1083 944 40
1084 944 40
1085 944 40
1089 944 26
1090 944 26
1091 944 26
1095 944 26
1096 944 26
1103 944 26
1104 944 26
950 945 40
951 945 40
952 945 40
953 945 40
954 945 40
958 945 26
959 945 26
964 945 26
965 945 26
966 945 26
967 945 26
968 945 26
1079 945 40
1080 945 40
1081 945 40
1082 945 40
1083 945 40
1084 945 40
1085 945 40
1089 945 26
1090 945 26
1091 945 26
1095 945 26
1096 945 26
1103 945 26
1104 945 26
951 950 40
952 950 40
953 950 40
954 950 40
958 950 26
959 950 26
964 950 26
965 950 26
966 950 26
967 950 26
968 950 26
1079 950 40
1080 950 40
1081 950 40
1082 950 40
1083 950 40
1084 950 40
1085 950 40
1089 950 26
1090 950 26
1091 950 26
1095 950 26
1096 950 26
1103 950 26
1104 950 26
952 951 40
953 951 40
954 951 40
958 951 26
959 951 26
964 951 26
965 951 26
966 951 26
967 951 26
968 951 26
1079 951 40
1080 951 40
1081 951 40
1082 951 40
1083 951 40
1084 951 40
1085 951 40
1089 951 26
1090 951 26
1091 951 26
1095 951 26
1096 951 26
1103 951 26
1104 951 26
953 952 40
954 952 40
958 952 26
959 952 26
964 952 26
965 952 26
966 952 26
967 952 26
968 952 26
1079 952 40
1080 952 40
1081 952 40
1082 952 40
1083 952 40
1084 952 40
1085 952 40
1089 952 26
1090 952 26
1091 952 26
1095 952 26
1096 952 26
1103 952 26
1104 952 26
954 953 40
958 953 26
959 953 26
964 953 26
965 953 26
966 953 26
967 953 26
968 953 26
1079 953 40
1080 953 40
1081 953 40
1082 953 40
1083 953 40
1084 953 40
1085 953 40
1089 953 26
1090 953 26
1091 953 26
1095 953 26
1096 953 26
1103 953 26
1104 953 26
958 954 26
959 954 26
964 954 26
965 954 26
966 954 26
967 954 26
968 954 26
1079 954 40
1080 954 40
1081 954 40
1082 954 40
1083 954 40
1084 954 40
1085 954 40
1089 954 26
1090 954 26
1091 954 26
1095 954 26
1096 954 26
1103 954 26
1104 954 26
959 958 38
964 958 38
965 958 38
966 958 38
967 958 38
968 958 38
1079 958 26
1080 958 26
1081 958 26
1082 958 26
1083 958 26
1084 958 26
1085 958 26
1089 958 38
1090 958 38
1091 958 38
1095 958 38
1096 958 38
1103 958 38
1104 958 38
964 959 38
965 959 38
966 959 38
967 959 38
968 959 38
1079 959 26
1080 959 26
1081 959 26
1082 959 26
1083 959 26
1084 959 26
1085 959 26
1089 959 38
1090 959 38
1091 959 38
1095 959 38
1096 959 38
1103 959 38
1104 959 38
965 964 38
966 964 38
967 964 38
968 964 38
1079 964 26
1080 964 26
1081 964 26
1082 964 26
1083 964 26
1084 964 26
1085 964 26
1089 964 38
1090 964 38
1091 964 38
1095 964 38
1096 964 38
1103 964 38
1104 964 38
966 965 38
967 965 38
968 965 38
1079 965 26
1080 965 26
1081 965 26
1082 965 26
1083 965 26
1084 965 26
1085 965 26
1089 965 38
1090 965 38
1091 965 38
1095 965 38
1096 965 38
1103 965 38
1104 965 38
967 966 38
968 966 38
1079 966 26
1080 966 26
1081 966 26
1082 966 26
1083 966 26
1084 966 26
1085 966 26
1089 966 38
1090 966 38
1091 966 38
1095 966 38
1096 966 38
1103 966 38
1104 966 38
968 967 38
1079 967 26
1080 967 26
1081 967 26
1082 967 26
1083 967 26
1084 967 26
1085 967 26
1089 967 38
1090 967 38
1091 967 38
1095 967 38
1096 967 38
1103 967 38
1104 967 38
1079 968 26
1080 968 26
1081 968 26
1082 968 26
1083 968 26
1084 968 26
1085 968 26
1089 968 38
1090 968 38
1091 968 38
1095 968 38
1096 968 38
1103 968 38
1104 968 38
1001 1000 38
1006 1000 26
1007 1000 26
1008 1000 38
1009 1000 38
1010 1000 26
1011 1000 26
1012 1000 26
1013 1000 38
1014 1000 38
1015 1000 38
1026 1000 26
1027 1000 26
1032 1000 26
1033 1000 26
1034 1000 26
1035 1000 26
1039 1000 26
1040 1000 26
1041 1000 26
1048 1000 38
1049 1000 38
1050 1000 38
1051 1000 38
1052 1000 38
1053 1000 38
1054 1000 38
1006 1001 26
1007 1001 26
1008 1001 38
1009 1001 38
1010 1001 26
1011 1001 26
1012 1001 26
1013 1001 38
1014 1001 38
1015 1001 38
1026 1001 26
1027 1001 26
1032 1001 26
1033 1001 26
1034 1001 26
1035 1001 26
1039 1001 26
1040 1001 26
1041 1001 26
1048 1001 38
1049 1001 38
1050 1001 38
1051 1001 38
1052 1001 38
1053 1001 38
1054 1001 38
1007 1006 40
1008 1006 26
1009 1006 26
1010 1006 40
1011 1006 40
1012 1006 40
1013 1006 26
1014 1006 26
1015 1006 26
1026 1006 40
1027 1006 40
1032 1006 40
1033 1006 40
1034 1006 40
1035 1006 40
1039 1006 40
1040 1006 40
1041 1006 40
1048 1006 26
1049 1006 26
1050 1006 26
1051 1006 26
1052 1006 26
1053 1006 26
1054 1006 26
1008 1007 26
1009 1007 26
1010 1007 40
1011 1007 40
1012 1007 40
1013 1007 26
1014 1007 26
1015 1007 26
1026 1007 40
1027 1007 40
1032 1007 40
1033 1007 40
1034 1007 40
1035 1007 40
1039 1007 40
1040 1007 40
1041 1007 40
1048 1007 26
1049 1007 26
1050 1007 26
1051 1007 26
1052 1007 26
1053 1007 26
1054 1007 26
1009 1008 38
1010 1008 26
1011 1008 26
1012 1008 26
1013 1008 38
1014 1008 38
1015 1008 38
1026 1008 26
1027 1008 26
1032 1008 26
1033 1008 26
1034 1008 26
1035 1008 26
1039 1008 26
1040 1008 26
1041 1008 26
1048 1008 38
1049 1008 38
1050 1008 38
1051 1008 38
1052 1008 38
1053 1008 38
1054 1008 38
1010 1009 26
1011 1009 26
1012 1009 26
1013 1009 38
1014 1009 38
1015 1009 38
1026 1009 26
1027 1009 26
1032 1009 26
1033 1009 26
1034 1009 26
1035 1009 26
1039 1009 26
1040 1009 26
1041 1009 26
1048 1009 38
1049 1009 38
1050 1009 38
1051 1009 38
1052 1009 38
1053 1009 38
1054 1009 38
1011 1010 40
1012 1010 40
1013 1010 26
1014 1010 26
1015 1010 26
1026 1010 40
1027 1010 40
1032 1010 40
1033 1010 40
1034 1010 40
1035 1010 40
1039 1010 40
1040 1010 40
1041 1010 40
1048 1010 26
1049 1010 26
1050 1010 26
1051 1010 26
1052 1010 26
1053 1010 26
1054 1010 26
1012 1011 40
1013 1011 26
1014 1011 26
1015 1011 26
1026 1011 40
1027 1011 40
1032 1011 40
1033 1011 40
1034 1011 40
1035 1011 40
1039 1011 40
1040 1011 40
1041 1011 40
1048 1011 26
1049 1011 26
1050 1011 26
1051 1011 26
1052 1011 26
1053 1011 26
1054 1011 26
1013 1012 26
1014 1012 26
1015 1012 26
1026 1012 40
1027 1012 40
1032 1012 40
1033 1012 40
1034 1012 40
1035 1012 40
1039 1012 40
1040 1012 40
1041 1012 40
1048 1012 26
1049 1012 26
1050 1012 26
1051 1012 26
1052 1012 26
1053 1012 26
1054 1012 26
1014 1013 38
1015 1013 38
1026 1013 26
1027 1013 26
1032 1013 26
1033 1013 26
1034 1013 26
1035 1013 26
1039 1013 26
1040 1013 26
1041 1013 26
1048 1013 38
1049 1013 38
1050 1013 38
1051 1013 38
1052 1013 38
1053 1013 38
1054 1013 38
1015 1014 38
1026 1014 26
1027 1014 26
1032 1014 26
1033 1014 26
1034 1014 26
1035 1014 26
1039 1014 26
1040 1014 26
1041 1014 26
1048 1014 38
1049 1014 38
1050 1014 38
1051 1014 38
1052 1014 38
1053 1014 38
1054 1014 38
1026 1015 26
1027 1015 26
1032 1015 26
1033 1015 26
1034 1015 26
1035 1015 26
1039 1015 26
1040 1015 26
1041 1015 26
1048 1015 38
1049 1015 38
1050 1015 38
1051 1015 38
1052 1015 38
1053 1015 38
1054 1015 38
1027 1026 40
1032 1026 40
1033 1026 40
1034 1026 40
1035 1026 40
1039 1026 40
1040 1026 40
1041 1026 40
1048 1026 26
1049 1026 26
1050 1026 26
1051 1026 26
1052 1026 26
1053 1026 26
1054 1026 26
1032 1027 40
1033 1027 40
1034 1027 40
1035 1027 40
1039 1027 40
1040 1027 40
1041 1027 40
1048 1027 26
1049 1027 26
1050 1027 26
1051 1027 26
1052 1027 26
1053 1027 26
1054 1027 26
1033 1032 61
1034 1032 61
1035 1032 61
1039 1032 61
1040 1032 61
1041 1032 61
1048 1032 40
1049 1032 40
1050 1032 40
1051 1032 40
1052 1032 40
1053 1032 40
1054 1032 40
1148 1032 26
1149 1032 26
1150 1032 26
1151 1032 26
1152 1032 26
1153 1032 26
1154 1032 26
1159 1032 40
1160 1032 40
1161 1032 40
1162 1032 40
1163 1032 40
1164 1032 40
1165 1032 40
1170 1032 26
1171 1032 26
1172 1032 26
1173 1032 26
1174 1032 26
1175 1032 26
1176 1032 26
1034 1033 61
1035 1033 61
1039 1033 61
1040 1033 61
1041 1033 61
1048 1033 40
1049 1033 40
1050 1033 40
1051 1033 40
1052 1033 40
1053 1033 40
1054 1033 40
1148 1033 26
1149 1033 26
1150 1033 26
1151 1033 26
1152 1033 26
1153 1033 26
1154 1033 26
1159 1033 40
1160 1033 40
1161 1033 40
1162 1033 40
1163 1033 40
1164 1033 40
1165 1033 40
1170 1033 26
1171 1033 26
1172 1033 26
1173 1033 26
1174 1033 26
1175 1033 26
1176 1033 26
1035 1034 61
1039 1034 61
1040 1034 61
1041 1034 61
1048 1034 40
1049 1034 40
1050 1034 40
1051 1034 40
1052 1034 40
1053 1034 40
1054 1034 40
1148 1034 26
1149 1034 26
1150 1034 26
1151 1034 26
1152 1034 26
1153 1034 26
1154 1034 26
1159 1034 40
1160 1034 40
1161 1034 40
1162 1034 40
1163 1034 40
1164 1034 40
1165 1034 40
1170 1034 26
1171 1034 26
1172 1034 26
1173 1034 26
1174 1034 26
1175 1034 26
1176 1034 26
1039 1035 61
1040 1035 61
1041 1035 61
1048 1035 40
1049 1035 40
1050 1035 40
1051 1035 40
1052 1035 40
1053 1035 40
1054 1035 40
1148 1035 26
1149 1035 26
1150 1035 26
1151 1035 26
1152 1035 26
1153 1035 26
1154 1035 26
1159 1035 40
1160 1035 40
1161 1035 40
1162 1035 40
1163 1035 40
1164 1035 40
1165 1035 40
1170 1035 26
1171 1035 26
1172 1035 26
1173 1035 26
1174 1035 26
1175 1035 26
1176 1035 26
1040 1039 61
1041 1039 61
1048 1039 40
1049 1039 40
1050 1039 40
1051 1039 40
1052 1039 40
1053 1039 40
1054 1039 40
1148 1039 26
1149 1039 26
1150 1039 26
1151 1039 26
1152 1039 26
1153 1039 26
1154 1039 26
1159 1039 40
1160 1039 40
1161 1039 40
1162 1039 40
1163 1039 40
1164 1039 40
1165 1039 40
1170 1039 26
1171 1039 26
1172 1039 26
1173 1039 26
1174 1039 26
1175 1039 26
1176 1039 26
1041 1040 61
1048 1040 40
1049 1040 40
1050 1040 40
1051 1040 40
1052 1040 40
1053 1040 40
1054 1040 40
1148 1040 26
1149 1040 26
1150 1040 26
1151 1040 26
1152 1040 26
1153 1040 26
1154 1040 26
1159 1040 40
1160 1040 40
1161 1040 40
1162 1040 40
1163 1040 40
1164 1040 40
1165 1040 40
1170 1040 26
1171 1040 26
1172 1040 26
1173 1040 26
1174 1040 26
1175 1040 26
1176 1040 26
1048 1041 40
1049 1041 40
1050 1041 40
1051 1041 40
1052 1041 40
1053 1041 40
1054 1041 40
1148 1041 26
1149 1041 26
1150 1041 26
1151 1041 26
1152 1041 26
1153 1041 26
1154 1041 26
1159 1041 40
1160 1041 40
1161 1041 40
1162 1041 40
1163 1041 40
1164 1041 40
1165 1041 40
1170 1041 26
1171 1041 26
1172 1041 26
1173 1041 26
1174 1041 26
1175 1041 26
1176 1041 26
1049 1048 58
1050 1048 58
1051 1048 58
1052 1048 58
1053 1048 58
1054 1048 58
1058 1048 37
1059 1048 37
1060 1048 37
1061 1048 37
1062 1048 37
1063 1048 37
1148 1048 38
1149 1048 38
1150 1048 38
1151 1048 38
1152 1048 38
1153 1048 38
1154 1048 38
1159 1048 26
1160 1048 26
1161 1048 26
1162 1048 26
1163 1048 26
1164 1048 26
1165 1048 26
1050 1049 58
1051 1049 58
1052 1049 58
1053 1049 58
1054 1049 58
1058 1049 37
1059 1049 37
1060 1049 37
1061 1049 37
1062 1049 37
1063 1049 37
1148 1049 38
1149 1049 38
1150 1049 38
1151 1049 38
1152 1049 38
1153 1049 38
1154 1049 38
1159 1049 26
1160 1049 26
1161 1049 26
1162 1049 26
1163 1049 26
1164 1049 26
1165 1049 26
1051 1050 58
1052 1050 58
1053 1050 58
1054 1050 58
1058 1050 37
1059 1050 37
1060 1050 37
1061 1050 37
1062 1050 37
1063 1050 37
1148 1050 38
1149 1050 38
1150 1050 38
1151 1050 38
1152 1050 38
1153 1050 38
1154 1050 38
1159 1050 26
1160 1050 26
1161 1050 26
1162 1050 26
1163 1050 26
1164 1050 26
1165 1050 26
1052 1051 58
1053 1051 58
1054 1051 58
1058 1051 37
1059 1051 37
1060 1051 37
1061 1051 37
1062 1051 37
1063 1051 37
1148 1051 38
1149 1051 38
1150 1051 38
1151 1051 38
1152 1051 38
1153 1051 38
1154 1051 38
1159 1051 26
1160 1051 26
1161 1051 26
1162 1051 26
1163 1051 26
1164 1051 26
1165 1051 26
1053 1052 58
1054 1052 58
1058 1052 37
1059 1052 37
1060 1052 37
1061 1052 37
1062 1052 37
1063 1052 37
1148 1052 38
1149 1052 38
1150 1052 38
1151 1052 38
1152 1052 38
1153 1052 38
1154 1052 38
1159 1052 26
1160 1052 26
1161 1052 26
1162 1052 26
1163 1052 26
1164 1052 26
1165 1052 26
1054 1053 58
1058 1053 37
1059 1053 37
1060 1053 37
1061 1053 37
1062 1053 37
1063 1053 37
1148 1053 38
1149 1053 38
1150 1053 38
1151 1053 38
1152 1053 38
1153 1053 38
1154 1053 38
1159 1053 26
1160 1053 26
1161 1053 26
1162 1053 26
1163 1053 26
1164 1053 26
1165 1053 26
1058 1054 37
1059 1054 37
1060 1054 37
1061 1054 37
1062 1054 37
1063 1054 37
1148 1054 38
1149 1054 38
1150 1054 38
1151 1054 38
1152 1054 38
1153 1054 38
1154 1054 38
1159 1054 26
1160 1054 26
1161 1054 26
1162 1054 26
1163 1054 26
1164 1054 26
1165 1054 26
1059 1058 37
1060 1058 37
1061 1058 37
1062 1058 37
1063 1058 37
1060 1059 37
1061 1059 37
1062 1059 37
1063 1059 37
1061 1060 37
1062 1060 37
1063 1060 37
1062 1061 37
1063 1061 37
1063 1062 37
1080 1079 61
1081 1079 61
1082 1079 61
1083 1079 61
1084 1079 61
1085 1079 61
1089 1079 40
1090 1079 40
1091 1079 40
1095 1079 40
1096 1079 40
1103 1079 40
1104 1079 40
1217 1079 26
1218 1079 26
1219 1079 26
1220 1079 26
1221 1079 25
1222 1079 26
1223 1079 26
1228 1079 40
1229 1079 39
1230 1079 40
1231 1079 40
1232 1079 40
1233 1079 40
1234 1079 40
1239 1079 26
1240 1079 26
1241 1079 26
1245 1079 26
1246 1079 26
1249 1079 26
1250 1079 26
1081 1080 61
1082 1080 61
1083 1080 61
1084 1080 61
1085 1080 61
1089 1080 40
1090 1080 40
1091 1080 40
1095 1080 40
1096 1080 40
1103 1080 40
1104 1080 40
1217 1080 26
1218 1080 26
1219 1080 26
1220 1080 26
1221 1080 25
1222 1080 26
1223 1080 26
1228 1080 40
1229 1080 39
1230 1080 40
1231 1080 40
1232 1080 40
1233 1080 40
1234 1080 40
1239 1080 26
1240 1080 26
1241 1080 26
1245 1080 26
1246 1080 26
1249 1080 26
1250 1080 26
1082 1081 61
1083 1081 61
1084 1081 61
1085 1081 61
1089 1081 40
1090 1081 40
1091 1081 40
1095 1081 40
1096 1081 40
1103 1081 40
1104 1081 40
1217 1081 26
1218 1081 26
1219 1081 26
1220 1081 26
1221 1081 25
1222 1081 26
1223 1081 26
1228 1081 40
1229 1081 39
1230 1081 40
1231 1081 40
1232 1081 40
1233 1081 40
1234 1081 40
1239 1081 26
1240 1081 26
1241 1081 26
1245 1081 26
1246 1081 26
1249 1081 26
1250 1081 26
1083 1082 61
1084 1082 61
1085 1082 61
1089 1082 40
1090 1082 40
1091 1082 40
1095 1082 40
1096 1082 40
1103 1082 40
1104 1082 40
1217 1082 26
1218 1082 26
1219 1082 26
1220 1082 26
1221 1082 25
1222 1082 26
1223 1082 26
1228 1082 40
1229 1082 39
1230 1082 40
1231 1082 40
1232 1082 40
1233 1082 40
1234 1082 40
1239 1082 26
1240 1082 26
1241 1082 26
1245 1082 26
1246 1082 26
1249 1082 26
1250 1082 26
1084 1083 61
1085 1083 61
1089 1083 40
1090 1083 40
1091 1083 40
1095 1083 40
1096 1083 40
1103 1083 40
1104 1083 40
1217 1083 26
1218 1083 26
1219 1083 26
1220 1083 26
1221 1083 25
1222 1083 26
1223 1083 26
1228 1083 40
1229 1083 39
1230 1083 40
1231 1083 40
1232 1083 40
1233 1083 40
1234 1083 40
1239 1083 26
1240 1083 26
1241 1083 26
1245 1083 26
1246 1083 26
1249 1083 26
1250 1083 26
1085 1084 61
1089 1084 40
1090 1084 40
1091 1084 40
1095 1084 40
1096 1084 40
1103 1084 40
1104 1084 40
1217 1084 26
1218 1084 26
1219 1084 26
1220 1084 26
1221 1084 25
1222 1084 26
1223 1084 26
1228 1084 40
1229 1084 39
1230 1084 40
1231 1084 40
1232 1084 40
1233 1084 40
1234 1084 40
1239 1084 26
1240 1084 26
1241 1084 26
1245 1084 26
1246 1084 26
1249 1084 26
1250 1084 26
1089 1085 40
1090 1085 40
1091 1085 40
1095 1085 40
1096 1085 40
1103 1085 40
1104 1085 40
1217 1085 26
1218 1085 26
1219 1085 26
1220 1085 26
1221 1085 25
1222 1085 26
1223 1085 26
1228 1085 40
1229 1085 39
1230 1085 40
1231 1085 40
1232 1085 40
1233 1085 40
1234 1085 40
1239 1085 26
1240 1085 26
1241 1085 26
1245 1085 26
1246 1085 26
1249 1085 26
1250 1085 26
1090 1089 58
1091 1089 58
1092 1089 37
1093 1089 37
1094 1089 37
1095 1089 58
1096 1089 58
1097 1089 37
1098 1089 37
1103 1089 58
1104 1089 58
1108 1089 37
1228 1089 26
1229 1089 26
1230 1089 26
1231 1089 26
1232 1089 26
1233 1089 26
1234 1089 26
1239 1089 38
1240 1089 38
1241 1089 38
1245 1089 38
1246 1089 38
1249 1089 38
1250 1089 38
1091 1090 58
1092 1090 37
1093 1090 37
1094 1090 37
1095 1090 58
1096 1090 58
1097 1090 37
1098 1090 37
1103 1090 58
1104 1090 58
1108 1090 37
1228 1090 26
1229 1090 26
1230 1090 26
1231 1090 26
1232 1090 26
1233 1090 26
1234 1090 26
1239 1090 38
1240 1090 38
1241 1090 38
1245 1090 38
1246 1090 38
1249 1090 38
1250 1090 38
1092 1091 37
1093 1091 37
1094 1091 37
1095 1091 58
1096 1091 58
1097 1091 37
1098 1091 37
1103 1091 58
1104 1091 58
1108 1091 37
1228 1091 26
1229 1091 26
1230 1091 26
1231 1091 26
1232 1091 26
1233 1091 26
1234 1091 26
1239 1091 38
1240 1091 38
1241 1091 38
1245 1091 38
1246 1091 38
1249 1091 38
1250 1091 38
1093 1092 37
1094 1092 37
1095 1092 37
1096 1092 37
1097 1092 37
1098 1092 37
1103 1092 37
1104 1092 37
1108 1092 37
1094 1093 37
1095 1093 37
1096 1093 37
1097 1093 37
1098 1093 37
1103 1093 37
1104 1093 37
1108 1093 37
1095 1094 37
1096 1094 37
1097 1094 37
1098 1094 37
1103 1094 37
1104 1094 37
1108 1094 37
1096 1095 58
1097 1095 37
1098 1095 37
1103 1095 58
1104 1095 58
1108 1095 37
1228 1095 26
1229 1095 26
1230 1095 26
1231 1095 26
1232 1095 26
1233 1095 26
1234 1095 26
1239 1095 38
1240 1095 38
1241 1095 38
1245 1095 38
1246 1095 38
1249 1095 38
1250 1095 38
1097 1096 37
1098 1096 37
1103 1096 58
1104 1096 58
1108 1096 37
1228 1096 26
1229 1096 26
1230 1096 26
1231 1096 26
1232 1096 26
1233 1096 26
1234 1096 26
1239 1096 38
1240 1096 38
1241 1096 38
1245 1096 38
1246 1096 38
1249 1096 38
1250 1096 38
1098 1097 37
1103 1097 37
1104 1097 37
1108 1097 37
1103 1098 37
1104 1098 37
1108 1098 37
1104 1103 58
1108 1103 37
1228 1103 26
1229 1103 26
1230 1103 26
1231 1103 26
1232 1103 26
1233 1103 26
1234 1103 26
1239 1103 38
1240 1103 38
1241 1103 38
1245 1103 38
1246 1103 38
1249 1103 38
1250 1103 38
1108 1104 37
1228 1104 26
1229 1104 26
1230 1104 26
1231 1104 26
1232 1104 26
1233 1104 26
1234 1104 26
1239 1104 38
1240 1104 38
1241 1104 38
1245 1104 38
1246 1104 38
1249 1104 38
1250 1104 38
1139 1138 37
1140 1138 37
1141 1138 37
1142 1138 37
1143 1138 37
1148 1138 37
1149 1138 37
1150 1138 37
1151 1138 37
1152 1138 37
1153 1138 37
1154 1138 37
1140 1139 37
1141 1139 37
1142 1139 37
1143 1139 37
1148 1139 37
1149 1139 37
1150 1139 37
1151 1139 37
1152 1139 37
1153 1139 37
1154 1139 37
1141 1140 37
1142 1140 37
1143 1140 37
1148 1140 37
1149 1140 37
1150 1140 37
1151 1140 37
1152 1140 37
1153 1140 37
1154 1140 37
1142 1141 37
1143 1141 37
1148 1141 37
1149 1141 37
1150 1141 37
1151 1141 37
1152 1141 37
1153 1141 37
1154 1141 37
1143 1142 37
1148 1142 37
1149 1142 37
1150 1142 37
1151 1142 37
1152 1142 37
1153 1142 37
1154 1142 37
1148 1143 37
1149 1143 37
1150 1143 37
1151 1143 37
1152 1143 37
1153 1143 37
1154 1143 37
1149 1148 58
1150 1148 58
1151 1148 58
1152 1148 58
1153 1148 58
1154 1148 58
1159 1148 40
1160 1148 40
1161 1148 40
1162 1148 40
1163 1148 40
1164 1148 40
1165 1148 40
1300 1148 38
1301 1148 38
1302 1148 38
1303 1148 38
1307 1148 38
1308 1148 38
1309 1148 38
1323 1148 26
1324 1148 26
1325 1148 26
1326 1148 26
1344 1148 26
1345 1148 26
1346 1148 26
1150 1149 58
1151 1149 58
1152 1149 58
1153 1149 58
1154 1149 58
1159 1149 40
1160 1149 40
1161 1149 40
1162 1149 40
1163 1149 40
1164 1149 40
1165 1149 40
1300 1149 38
1301 1149 38
1302 1149 38
1303 1149 38
1307 1149 38
1308 1149 38
1309 1149 38
1323 1149 26
1324 1149 26
1325 1149 26
1326 1149 26
1344 1149 26
1345 1149 26
1346 1149 26
1151 1150 58
1152 1150 58
1153 1150 58
1154 1150 58
1159 1150 40
1160 1150 40
1161 1150 40
1162 1150 40
1163 1150 40
1164 1150 40
1165 1150 40
1300 1150 38
1301 1150 38
1302 1150 38
1303 1150 38
1307 1150 38
1308 1150 38
1309 1150 38
1323 1150 26
1324 1150 26
1325 1150 26
1326 1150 26
1344 1150 26
1345 1150 26
1346 1150 26
1152 1151 58
1153 1151 58
1154 1151 58
1159 1151 40
1160 1151 40
1161 1151 40
1162 1151 40
1163 1151 40
1164 1151 40
1165 1151 40
1300 1151 38
1301 1151 38
1302 1151 38
1303 1151 38
1307 1151 38
1308 1151 38
1309 1151 38
1323 1151 26
1324 1151 26
1325 1151 26
1326 1151 26
1344 1151 26
1345 1151 26
1346 1151 26
1153 1152 58
1154 1152 58
1159 1152 40
1160 1152 40
1161 1152 40
1162 1152 40
1163 1152 40
1164 1152 40
1165 1152 40
1300 1152 38
1301 1152 38
1302 1152 38
1303 1152 38
1307 1152 38
1308 1152 38
1309 1152 38
1323 1152 26
1324 1152 26
1325 1152 26
1326 1152 26
1344 1152 26
1345 1152 26
1346 1152 26
1154 1153 58
1159 1153 40
1160 1153 40
1161 1153 40
1162 1153 40
1163 1153 40
1164 1153 40
1165 1153 40
1300 1153 38
1301 1153 38
1302 1153 38
1303 1153 38
1307 1153 38
1308 1153 38
1309 1153 38
1323 1153 26
1324 1153 26
1325 1153 26
1326 1153 26
1344 1153 26
1345 1153 26
1346 1153 26
1159 1154 40
1160 1154 40
1161 1154 40
1162 1154 40
1163 1154 40
1164 1154 40
1165 1154 40
1300 1154 38
1301 1154 38
1302 1154 38
1303 1154 38
1307 1154 38
1308 1154 38
1309 1154 38
1323 1154 26
1324 1154 26
1325 1154 26
1326 1154 26
1344 1154 26
1345 1154 26
1346 1154 26
1160 1159 61
1161 1159 61
1162 1159 61
1163 1159 61
1164 1159 61
1165 1159 61
1170 1159 40
1171 1159 40
1172 1159 40
1173 1159 40
1174 1159 40
1175 1159 40
1176 1159 40
1300 1159 26
1301 1159 26
1302 1159 26
1303 1159 26
1307 1159 26
1308 1159 26
1309 1159 26
1323 1159 40
1324 1159 40
1325 1159 40
1326 1159 40
1330 1159 26
1331 1159 26
1332 1159 26
1333 1159 26
1344 1159 40
1345 1159 40
1346 1159 40
1347 1159 26
1348 1159 26
1349 1159 26
1161 1160 61
1162 1160 61
1163 1160 61
1164 1160 61
1165 1160 61
1170 1160 40
1171 1160 40
1172 1160 40
1173 1160 40
1174 1160 40
1175 1160 40
1176 1160 40
1300 1160 26
1301 1160 26
1302 1160 26
1303 1160 26
1307 1160 26
1308 1160 26
1309 1160 26
1323 1160 40
1324 1160 40
1325 1160 40
1326 1160 40
1330 1160 26
1331 1160 26
1332 1160 26
1333 1160 26
1344 1160 40
1345 1160 40
1346 1160 40
1347 1160 26
1348 1160 26
1349 1160 26
1162 1161 61
1163 1161 61
1164 1161 61
1165 1161 61
1170 1161 40
1171 1161 40
1172 1161 40
1173 1161 40
1174 1161 40
1175 1161 40
1176 1161 40
1300 1161 26
1301 1161 26
1302 1161 26
1303 1161 26
1307 1161 26
1308 1161 26
1309 1161 26
1323 1161 40
1324 1161 40
1325 1161 40
1326 1161 40
1330 1161 26
1331 1161 26
1332 1161 26
1333 1161 26
1344 1161 40
1345 1161 40
1346 1161 40
1347 1161 26
1348 1161 26
1349 1161 26
1163 1162 61
1164 1162 61
1165 1162 61
1170 1162 40
1171 1162 40
1172 1162 40
1173 1162 40
1174 1162 40
1175 1162 40
1176 1162 40
1300 1162 26
1301 1162 26
1302 1162 26
1303 1162 26
1307 1162 26
1308 1162 26
1309 1162 26
1323 1162 40
1324 1162 40
1325 1162 40
1326 1162 40
1330 1162 26
1331 1162 26
1332 1162 26
1333 1162 26
1344 1162 40
1345 1162 40
1346 1162 40
1347 1162 26
1348 1162 26
1349 1162 26
1164 1163 61
1165 1163 61
1170 1163 40
1171 1163 40
1172 1163 40
1173 1163 40
1174 1163 40
1175 1163 40
1176 1163 40
1300 1163 26
1301 1163 26
1302 1163 26
1303 1163 26
1307 1163 26
1308 1163 26
1309 1163 26
1323 1163 40
1324 1163 40
1325 1163 40
1326 1163 40
1330 1163 26
1331 1163 26
1332 1163 26
1333 1163 26
1344 1163 40
1345 1163 40
1346 1163 40
1347 1163 26
1348 1163 26
1349 1163 26
1165 1164 61
1170 1164 40
1171 1164 40
1172 1164 40
1173 1164 40
1174 1164 40
1175 1164 40
1176 1164 40
1300 1164 26
1301 1164 26
1302 1164 26
1303 1164 26
1307 1164 26
1308 1164 26
1309 1164 26
1323 1164 40
1324 1164 40
1325 1164 40
1326 1164 40
1330 1164 26
1331 1164 26
1332 1164 26
1333 1164 26
1344 1164 40
1345 1164 40
1346 1164 40
1347 1164 26
1348 1164 26
1349 1164 26
1170 1165 40
1171 1165 40
1172 1165 40
1173 1165 40
1174 1165 40
1175 1165 40
1176 1165 40
1300 1165 26
1301 1165 26
1302 1165 26
1303 1165 26
1307 1165 26
1308 1165 26
1309 1165 26
1323 1165 40
1324 1165 40
1325 1165 40
1326 1165 40
1330 1165 26
1331 1165 26
1332 1165 26
1333 1165 26
1344 1165 40
1345 1165 40
1346 1165 40
1347 1165 26
1348 1165 26
1349 1165 26
1171 1170 58
1172 1170 58
1173 1170 58
1174 1170 58
1175 1170 58
1176 1170 58
1181 1170 37
1182 1170 37
1183 1170 37
1188 1170 37
1189 1170 37
1190 1170 37
1323 1170 26
1324 1170 26
1325 1170 26
1326 1170 26
1330 1170 38
1331 1170 38
1332 1170 38
1333 1170 38
1344 1170 26
1345 1170 26
1346 1170 26
1347 1170 38
1348 1170 38
1349 1170 38
1172 1171 58
1173 1171 58
1174 1171 58
1175 1171 58
1176 1171 58
1181 1171 37
1182 1171 37
1183 1171 37
1188 1171 37
1189 1171 37
1190 1171 37
1323 1171 26
1324 1171 26
1325 1171 26
1326 1171 26
1330 1171 38
1331 1171 38
1332 1171 38
1333 1171 38
1344 1171 26
1345 1171 26
1346 1171 26
1347 1171 38
1348 1171 38
1349 1171 38
1173 1172 58
1174 1172 58
1175 1172 58
1176 1172 58
1181 1172 37
1182 1172 37
1183 1172 37
1188 1172 37
1189 1172 37
1190 1172 37
1323 1172 26
1324 1172 26
1325 1172 26
1326 1172 26
1330 1172 38
1331 1172 38
1332 1172 38
1333 1172 38
1344 1172 26
1345 1172 26
1346 1172 26
1347 1172 38
1348 1172 38
1349 1172 38
1174 1173 58
1175 1173 58
1176 1173 58
1181 1173 37
1182 1173 37
1183 1173 37
1188 1173 37
1189 1173 37
1190 1173 37
1323 1173 26
1324 1173 26
1325 1173 26
1326 1173 26
1330 1173 38
1331 1173 38
1332 1173 38
1333 1173 38
1344 1173 26
1345 1173 26
1346 1173 26
1347 1173 38
1348 1173 38
1349 1173 38
1175 1174 58
1176 1174 58
1181 1174 37
1182 1174 37
1183 1174 37
1188 1174 37
1189 1174 37
1190 1174 37
1323 1174 26
1324 1174 26
1325 1174 26
1326 1174 26
1330 1174 38
1331 1174 38
1332 1174 38
1333 1174 38
1344 1174 26
1345 1174 26
1346 1174 26
1347 1174 38
1348 1174 38
1349 1174 38
1176 1175 58
1181 1175 37
1182 1175 37
1183 1175 37
1188 1175 37
1189 1175 37
1190 1175 37
1323 1175 26
1324 1175 26
1325 1175 26
1326 1175 26
1330 1175 38
1331 1175 38
1332 1175 38
1333 1175 38
1344 1175 26
1345 1175 26
1346 1175 26
1347 1175 38
1348 1175 38
1349 1175 38
1181 1176 37
1182 1176 37
1183 1176 37
1188 1176 37
1189 1176 37
1190 1176 37
1323 1176 26
1324 1176 26
1325 1176 26
1326 1176 26
1330 1176 38
1331 1176 38
1332 1176 38
1333 1176 38
1344 1176 26
1345 1176 26
1346 1176 26
1347 1176 38
1348 1176 38
1349 1176 38
1182 1181 37
1183 1181 37
1188 1181 37
1189 1181 37
1190 1181 37
1183 1182 37
1188 1182 37
1189 1182 37
1190 1182 37
1188 1183 37
1189 1183 37
1190 1183 37
1189 1188 37
1190 1188 37
1190 1189 37
1208 1207 37
1209 1207 37
1210 1207 37
1211 1207 37
1212 1207 37
1217 1207 37
1218 1207 37
1219 1207 37
1220 1207 37
1221 1207 37
1222 1207 37
1223 1207 37
1209 1208 37
1210 1208 37
1211 1208 37
1212 1208 37
1217 1208 37
1218 1208 37
1219 1208 37
1220 1208 37
1221 1208 37
1222 1208 37
1223 1208 37
1210 1209 37
1211 1209 37
1212 1209 37
1217 1209 37
1218 1209 37
1219 1209 37
1220 1209 37
1221 1209 37
1222 1209 37
1223 1209 37
1211 1210 37
1212 1210 37
1217 1210 37
1218 1210 37
1219 1210 37
1220 1210 37
1221 1210 37
1222 1210 37
1223 1210 37
1212 1211 37
1217 1211 37
1218 1211 37
1219 1211 37
1220 1211 37
1221 1211 37
1222 1211 37
1223 1211 37
1217 1212 37
1218 1212 37
1219 1212 37
1220 1212 37
1221 1212 37
1222 1212 37
1223 1212 37
1218 1217 58
1219 1217 58
1220 1217 58
1221 1217 57
1222 1217 58
1223 1217 58
1228 1217 40
1229 1217 39
1230 1217 40
1231 1217 40
1232 1217 40
1233 1217 40
1234 1217 40
1370 1217 26
1371 1217 26
1372 1217 26
1373 1217 26
1374 1217 26
1375 1217 26
1376 1217 26
1383 1217 38
1384 1217 38
1385 1217 38
1388 1217 38
1389 1217 38
1399 1217 38
1400 1217 38
1219 1218 58
1220 1218 58
1221 1218 57
1222 1218 58
1223 1218 58
1228 1218 40
1229 1218 39
1230 1218 40
1231 1218 40
1232 1218 40
1233 1218 40
1234 1218 40
1370 1218 26
1371 1218 26
1372 1218 26
1373 1218 26
1374 1218 26
1375 1218 26
1376 1218 26
1383 1218 38
1384 1218 38
1385 1218 38
1388 1218 38
1389 1218 38
1399 1218 38
1400 1218 38
1220 1219 58
1221 1219 57
1222 1219 58
1223 1219 58
1228 1219 40
1229 1219 39
1230 1219 40
1231 1219 40
1232 1219 40
1233 1219 40
1234 1219 40
1370 1219 26
1371 1219 26
1372 1219 26
1373 1219 26
1374 1219 26
1375 1219 26
1376 1219 26
1383 1219 38
1384 1219 38
1385 1219 38
1388 1219 38
1389 1219 38
1399 1219 38
1400 1219 38
1221 1220 57
1222 1220 58
1223 1220 58
1228 1220 40
1229 1220 39
1230 1220 40
1231 1220 40
1232 1220 40
1233 1220 40
1234 1220 40
1370 1220 26
1371 1220 26
1372 1220 26
1373 1220 26
1374 1220 26
1375 1220 26
1376 1220 26
1383 1220 38
1384 1220 38
1385 1220 38
1388 1220 38
1389 1220 38
1399 1220 38
1400 1220 38
1222 1221 57
1223 1221 57
1228 1221 39
1230 1221 39
1231 1221 39
1232 1221 39
1233 1221 39
1234 1221 39
1370 1221 25
1371 1221 25
1372 1221 25
1373 1221 25
1374 1221 25
1375 1221 25
1376 1221 25
1383 1221 37
1384 1221 37
1385 1221 37
1388 1221 37
1389 1221 37
1399 1221 37
1400 1221 37
1223 1222 58
1228 1222 40
1229 1222 39
1230 1222 40
1231 1222 40
1232 1222 40
1233 1222 40
1234 1222 40
1370 1222 26
1371 1222 26
1372 1222 26
1373 1222 26
1374 1222 26
1375 1222 26
1376 1222 26
1383 1222 38
1384 1222 38
1385 1222 38
1388 1222 38
1389 1222 38
1399 1222 38
1400 1222 38
1228 1223 40
1229 1223 39
1230 1223 40
1231 1223 40
1232 1223 40
1233 1223 40
1234 1223 40
1370 1223 26
1371 1223 26
1372 1223 26
1373 1223 26
1374 1223 26
1375 1223 26
1376 1223 26
1383 1223 38
1384 1223 38
1385 1223 38
1388 1223 38
1389 1223 38
1399 1223 38
1400 1223 38
1229 1228 60
1230 1228 61
1231 1228 61
1232 1228 61
1233 1228 61
1234 1228 61
1239 1228 40
1240 1228 40
1241 1228 40
1245 1228 40
1246 1228 40
1249 1228 40
1250 1228 40
1313 1228 26
1314 1228 26
1316 1228 26
1317 1228 26
1318 1228 26
1319 1228 26
1370 1228 40
1371 1228 40
1372 1228 40
1373 1228 40
1374 1228 40
1375 1228 39
1376 1228 39
1383 1228 26
1384 1228 26
1385 1228 26
1388 1228 26
1389 1228 26
1399 1228 26
1400 1228 26
1230 1229 60
1231 1229 60
1232 1229 60
1233 1229 60
1234 1229 60
1239 1229 40
1240 1229 40
1241 1229 40
1245 1229 40
1246 1229 40
1249 1229 40
1250 1229 40
1313 1229 26
1314 1229 26
1316 1229 26
1317 1229 26
1318 1229 26
1319 1229 26
1370 1229 39
1371 1229 39
1372 1229 39
1373 1229 39
1374 1229 39
1375 1229 38
1376 1229 38
1383 1229 25
1384 1229 25
1385 1229 25
1388 1229 25
1389 1229 25
1399 1229 25
1400 1229 25
1231 1230 61
1232 1230 61
1233 1230 61
1234 1230 61
1239 1230 40
1240 1230 40
1241 1230 40
1245 1230 40
1246 1230 40
1249 1230 40
1250 1230 40
1313 1230 26
1314 1230 26
1316 1230 26
1317 1230 26
1318 1230 26
1319 1230 26
1370 1230 40
1371 1230 40
1372 1230 40
1373 1230 40
1374 1230 40
1375 1230 39
1376 1230 39
1383 1230 26
1384 1230 26
1385 1230 26
1388 1230 26
1389 1230 26
1399 1230 26
1400 1230 26
1232 1231 61
1233 1231 61
1234 1231 61
1239 1231 40
1240 1231 40
1241 1231 40
1245 1231 40
1246 1231 40
1249 1231 40
1250 1231 40
1313 1231 26
1314 1231 26
1316 1231 26
1317 1231 26
1318 1231 26
1319 1231 26
1370 1231 40
1371 1231 40
1372 1231 40
1373 1231 40
1374 1231 40
1375 1231 39
1376 1231 39
1383 1231 26
1384 1231 26
1385 1231 26
1388 1231 26
1389 1231 26
1399 1231 26
1400 1231 26
1233 1232 61
1234 1232 61
1239 1232 40
1240 1232 40
1241 1232 40
1245 1232 40
1246 1232 40
1249 1232 40
1250 1232 40
1313 1232 26
1314 1232 26
1316 1232 26
1317 1232 26
1318 1232 26
1319 1232 26
1370 1232 40
1371 1232 40
1372 1232 40
1373 1232 40
1374 1232 40
1375 1232 39
1376 1232 39
1383 1232 26
1384 1232 26
1385 1232 26
1388 1232 26
1389 1232 26
1399 1232 26
1400 1232 26
1234 1233 61
1239 1233 40
1240 1233 40
1241 1233 40
1245 1233 40
1246 1233 40
1249 1233 40
1250 1233 40
1313 1233 26
1314 1233 26
1316 1233 26
1317 1233 26
1318 1233 26
1319 1233 26
1370 1233 40
1371 1233 40
1372 1233 40
1373 1233 40
1374 1233 40
1375 1233 39
1376 1233 39
1383 1233 26
1384 1233 26
1385 1233 26
1388 1233 26
1389 1233 26
1399 1233 26
1400 1233 26
1239 1234 40
1240 1234 40
1241 1234 40
1245 1234 40
1246 1234 40
1249 1234 40
1250 1234 40
1313 1234 26
1314 1234 26
1316 1234 26
1317 1234 26
1318 1234 26
1319 1234 26
1370 1234 40
1371 1234 40
1372 1234 40
1373 1234 40
1374 1234 40
1375 1234 39
1376 1234 39
1383 1234 26
1384 1234 26
1385 1234 26
1388 1234 26
1389 1234 26
1399 1234 26
1400 1234 26
1240 1239 58
1241 1239 58
1242 1239 37
1243 1239 37
1244 1239 37
1245 1239 58
1246 1239 58
1247 1239 37
1248 1239 37
1249 1239 58
1250 1239 58
1255 1239 37
1313 1239 38
1314 1239 38
1315 1239 36
1316 1239 38
1317 1239 38
1318 1239 38
1319 1239 38
1370 1239 26
1371 1239 26
1372 1239 26
1373 1239 26
1374 1239 26
1375 1239 25
1376 1239 25
1241 1240 58
1242 1240 37
1243 1240 37
1244 1240 37
1245 1240 58
1246 1240 58
1247 1240 37
1248 1240 37
1249 1240 58
1250 1240 58
1255 1240 37
1313 1240 38
1314 1240 38
1315 1240 36
1316 1240 38
1317 1240 38
1318 1240 38
1319 1240 38
1370 1240 26
1371 1240 26
1372 1240 26
1373 1240 26
1374 1240 26
1375 1240 25
1376 1240 25
1242 1241 37
1243 1241 37
1244 1241 37
1245 1241 58
1246 1241 58
1247 1241 37
1248 1241 37
1249 1241 58
1250 1241 58
1255 1241 37
1313 1241 38
1314 1241 38
1315 1241 36
1316 1241 38
1317 1241 38
1318 1241 38
1319 1241 38
1370 1241 26
1371 1241 26
1372 1241 26
1373 1241 26
1374 1241 26
1375 1241 25
1376 1241 25
1243 1242 37
1244 1242 37
1245 1242 37
1246 1242 37
1247 1242 37
1248 1242 37
1249 1242 37
1250 1242 37
1255 1242 37
1244 1243 37
1245 1243 37
1246 1243 37
1247 1243 37
1248 1243 37
1249 1243 37
1250 1243 37
1255 1243 37
1245 1244 37
1246 1244 37
1247 1244 37
1248 1244 37
1249 1244 37
1250 1244 37
1255 1244 37
1246 1245 58
1247 1245 37
1248 1245 37
1249 1245 58
1250 1245 58
1255 1245 37
1313 1245 38
1314 1245 38
1315 1245 36
1316 1245 38
1317 1245 38
1318 1245 38
1319 1245 38
1370 1245 26
1371 1245 26
1372 1245 26
1373 1245 26
1374 1245 26
1375 1245 25
1376 1245 25
1247 1246 37
1248 1246 37
1249 1246 58
1250 1246 58
1255 1246 37
1313 1246 38
1314 1246 38
1315 1246 36
1316 1246 38
1317 1246 38
1318 1246 38
1319 1246 38
1370 1246 26
1371 1246 26
1372 1246 26
1373 1246 26
1374 1246 26
1375 1246 25
1376 1246 25
1248 1247 37
1249 1247 37
1250 1247 37
1255 1247 37
1249 1248 37
1250 1248 37
1255 1248 37
1250 1249 58
1255 1249 37
1313 1249 38
1314 1249 38
1315 1249 36
1316 1249 38
1317 1249 38
1318 1249 38
1319 1249 38
1370 1249 26
1371 1249 26
1372 1249 26
1373 1249 26
1374 1249 26
1375 1249 25
1376 1249 25
1255 1250 37
1313 1250 38
1314 1250 38
1315 1250 36
1316 1250 38
1317 1250 38
1318 1250 38
1319 1250 38
1370 1250 26
1371 1250 26
1372 1250 26
1373 1250 26
1374 1250 26
1375 1250 25
1376 1250 25
1278 1277 37
1279 1277 37
1284 1277 37
1285 1277 37
1286 1277 37
1300 1277 37
1301 1277 37
1302 1277 37
1303 1277 37
1307 1277 37
1308 1277 37
1309 1277 37
1279 1278 37
1284 1278 37
1285 1278 37
1286 1278 37
1300 1278 37
1301 1278 37
1302 1278 37
1303 1278 37
1307 1278 37
1308 1278 37
1309 1278 37
1284 1279 37
1285 1279 37
1286 1279 37
1300 1279 37
1301 1279 37
1302 1279 37
1303 1279 37
1307 1279 37
1308 1279 37
1309 1279 37
1285 1284 37
1286 1284 37
1300 1284 37
1301 1284 37
1302 1284 37
1303 1284 37
1307 1284 37
1308 1284 37
1309 1284 37
1286 1285 37
1300 1285 37
1301 1285 37
1302 1285 37
1303 1285 37
1307 1285 37
1308 1285 37
1309 1285 37
1300 1286 37
1301 1286 37
1302 1286 37
1303 1286 37
1307 1286 37
1308 1286 37
1309 1286 37
1291 1290 37
1292 1290 37
1293 1290 37
1294 1290 37
1295 1290 37
1313 1290 37
1314 1290 37
1315 1290 37
1316 1290 37
1317 1290 37
1318 1290 37
1319 1290 37
1292 1291 37
1293 1291 37
1294 1291 37
1295 1291 37
1313 1291 37
1314 1291 37
1315 1291 37
1316 1291 37
1317 1291 37
1318 1291 37
1319 1291 37
1293 1292 37
1294 1292 37
1295 1292 37
1313 1292 37
1314 1292 37
1315 1292 37
1316 1292 37
1317 1292 37
1318 1292 37
1319 1292 37
1294 1293 37
1295 1293 37
1313 1293 37
1314 1293 37
1315 1293 37
1316 1293 37
1317 1293 37
1318 1293 37
1319 1293 37
1295 1294 37
1313 1294 37
1314 1294 37
1315 1294 37
1316 1294 37
1317 1294 37
1318 1294 37
1319 1294 37
1313 1295 37
1314 1295 37
1315 1295 37
1316 1295 37
1317 1295 37
1318 1295 37
1319 1295 37
1301 1300 58
1302 1300 58
1303 1300 58
1307 1300 58
1308 1300 58
1309 1300 58
1323 1300 40
1324 1300 40
1325 1300 40
1326 1300 40
1344 1300 40
1345 1300 40
1346 1300 40
1470 1300 26
1471 1300 26
1472 1300 26
1473 1300 26
1474 1300 26
1479 1300 26
1480 1300 26
1534 1300 38
1535 1300 38
1540 1300 38
1541 1300 38
1542 1300 38
1543 1300 38
1544 1300 38
1302 1301 58
1303 1301 58
1307 1301 58
1308 1301 58
1309 1301 58
1323 1301 40
1324 1301 40
1325 1301 40
1326 1301 40
1344 1301 40
1345 1301 40
1346 1301 40
1470 1301 26
1471 1301 26
1472 1301 26
1473 1301 26
1474 1301 26
1479 1301 26
1480 1301 26
1534 1301 38
1535 1301 38
1540 1301 38
1541 1301 38
1542 1301 38
1543 1301 38
1544 1301 38
1303 1302 58
1307 1302 58
1308 1302 58
1309 1302 58
1323 1302 40
1324 1302 40
1325 1302 40
1326 1302 40
1344 1302 40
1345 1302 40
1346 1302 40
1470 1302 26
1471 1302 26
1472 1302 26
1473 1302 26
1474 1302 26
1479 1302 26
1480 1302 26
1534 1302 38
1535 1302 38
1540 1302 38
1541 1302 38
1542 1302 38
1543 1302 38
1544 1302 38
1307 1303 58
1308 1303 58
1309 1303 58
1323 1303 40
1324 1303 40
1325 1303 40
1326 1303 40
1344 1303 40
1345 1303 40
1346 1303 40
1470 1303 26
1471 1303 26
1472 1303 26
1473 1303 26
1474 1303 26
1479 1303 26
1480 1303 26
1534 1303 38
1535 1303 38
1540 1303 38
1541 1303 38
1542 1303 38
1543 1303 38
1544 1303 38
1308 1307 58
1309 1307 58
1323 1307 40
1324 1307 40
1325 1307 40
1326 1307 40
1344 1307 40
1345 1307 40
1346 1307 40
1470 1307 26
1471 1307 26
1472 1307 26
1473 1307 26
1474 1307 26
1479 1307 26
1480 1307 26
1534 1307 38
1535 1307 38
1540 1307 38
1541 1307 38
1542 1307 38
1543 1307 38
1544 1307 38
1309 1308 58
1323 1308 40
1324 1308 40
1325 1308 40
1326 1308 40
1344 1308 40
1345 1308 40
1346 1308 40
1470 1308 26
1471 1308 26
1472 1308 26
1473 1308 26
1474 1308 26
1479 1308 26
1480 1308 26
1534 1308 38
1535 1308 38
1540 1308 38
1541 1308 38
1542 1308 38
1543 1308 38
1544 1308 38
1323 1309 40
1324 1309 40
1325 1309 40
1326 1309 40
1344 1309 40
1345 1309 40
1346 1309 40
1470 1309 26
1471 1309 26
1472 1309 26
1473 1309 26
1474 1309 26
1479 1309 26
1480 1309 26
1534 1309 38
1535 1309 38
1540 1309 38
1541 1309 38
1542 1309 38
1543 1309 38
1544 1309 38
1314 1313 58
1315 1313 56
1316 1313 58
1317 1313 58
1318 1313 58
1319 1313 58
1370 1313 40
1371 1313 40
1372 1313 40
1373 1313 40
1374 1313 40
1375 1313 39
1376 1313 39
1481 1313 26
1482 1313 26
1487 1313 26
1488 1313 26
1489 1313 26
1490 1313 26
1491 1313 26
1492 1313 38
1493 1313 38
1498 1313 38
1499 1313 38
1500 1313 38
1501 1313 38
1502 1313 38
1315 1314 56
1316 1314 58
1317 1314 58
1318 1314 58
1319 1314 58
1370 1314 40
1371 1314 40
1372 1314 40
1373 1314 40
1374 1314 40
1375 1314 39
1376 1314 39
1481 1314 26
1482 1314 26
1487 1314 26
1488 1314 26
1489 1314 26
1490 1314 26
1491 1314 26
1492 1314 38
1493 1314 38
1498 1314 38
1499 1314 38
1500 1314 38
1501 1314 38
1502 1314 38
1316 1315 56
1317 1315 56
1318 1315 56
1319 1315 56
1370 1315 38
1371 1315 38
1372 1315 38
1373 1315 38
1374 1315 38
1492 1315 36
1493 1315 36
1498 1315 36
1499 1315 36
1500 1315 36
1501 1315 36
1502 1315 36
1317 1316 58
1318 1316 58
1319 1316 58
1370 1316 40
1371 1316 40
1372 1316 40
1373 1316 40
1374 1316 40
1375 1316 39
1376 1316 39
1481 1316 26
1482 1316 26
1487 1316 26
1488 1316 26
1489 1316 26
1490 1316 26
1491 1316 26
1492 1316 38
1493 1316 38
1498 1316 38
1499 1316 38
1500 1316 38
1501 1316 38
1502 1316 38
1318 1317 58
1319 1317 58
1370 1317 40
1371 1317 40
1372 1317 40
1373 1317 40
1374 1317 40
1375 1317 39
1376 1317 39
1481 1317 26
1482 1317 26
1487 1317 26
1488 1317 26
1489 1317 26
1490 1317 26
1491 1317 26
1492 1317 38
1493 1317 38
1498 1317 38
1499 1317 38
1500 1317 38
1501 1317 38
1502 1317 38
1319 1318 58
1370 1318 40
1371 1318 40
1372 1318 40
1373 1318 40
1374 1318 40
1375 1318 39
1376 1318 39
1481 1318 26
1482 1318 26
1487 1318 26
1488 1318 26
1489 1318 26
1490 1318 26
1491 1318 26
1492 1318 38
1493 1318 38
1498 1318 38
1499 1318 38
1500 1318 38
1501 1318 38
1502 1318 38
1370 1319 40
1371 1319 40
1372 1319 40
1373 1319 40
1374 1319 40
1375 1319 39
1376 1319 39
1481 1319 26
1482 1319 26
1487 1319 26
1488 1319 26
1489 1319 26
1490 1319 26
1491 1319 26
1492 1319 38
1493 1319 38
1498 1319 38
1499 1319 38
1500 1319 38
1501 1319 38
1502 1319 38
1324 1323 61
1325 1323 61
1326 1323 61
1330 1323 40
1331 1323 40
1332 1323 40
1333 1323 40
1344 1323 61
1345 1323 61
1346 1323 61
1347 1323 40
1348 1323 40
1349 1323 40
1456 1323 26
1457 1323 26
1462 1323 26
1463 1323 26
1464 1323 26
1465 1323 26
1466 1323 26
1470 1323 40
1471 1323 40
1472 1323 40
1473 1323 40
1474 1323 40
1479 1323 40
1480 1323 40
1534 1323 26
1535 1323 26
1540 1323 26
1541 1323 26
1542 1323 26
1543 1323 26
1544 1323 26
1325 1324 61
1326 1324 61
1330 1324 40
1331 1324 40
1332 1324 40
1333 1324 40
1344 1324 61
1345 1324 61
1346 1324 61
1347 1324 40
1348 1324 40
1349 1324 40
1456 1324 26
1457 1324 26
1462 1324 26
1463 1324 26
1464 1324 26
1465 1324 26
1466 1324 26
1470 1324 40
1471 1324 40
1472 1324 40
1473 1324 40
1474 1324 40
1479 1324 40
1480 1324 40
1534 1324 26
1535 1324 26
1540 1324 26
1541 1324 26
1542 1324 26
1543 1324 26
1544 1324 26
1326 1325 61
1330 1325 40
1331 1325 40
1332 1325 40
1333 1325 40
1344 1325 61
1345 1325 61
1346 1325 61
1347 1325 40
1348 1325 40
1349 1325 40
1456 1325 26
1457 1325 26
1462 1325 26
1463 1325 26
1464 1325 26
1465 1325 26
1466 1325 26
1470 1325 40
1471 1325 40
1472 1325 40
1473 1325 40
1474 1325 40
1479 1325 40
1480 1325 40
1534 1325 26
1535 1325 26
1540 1325 26
1541 1325 26
1542 1325 26
1543 1325 26
1544 1325 26
1330 1326 40
1331 1326 40
1332 1326 40
1333 1326 40
1344 1326 61
1345 1326 61
1346 1326 61
1347 1326 40
1348 1326 40
1349 1326 40
1456 1326 26
1457 1326 26
1462 1326 26
1463 1326 26
1464 1326 26
1465 1326 26
1466 1326 26
1470 1326 40
1471 1326 40
1472 1326 40
1473 1326 40
1474 1326 40
1479 1326 40
1480 1326 40
1534 1326 26
1535 1326 26
1540 1326 26
1541 1326 26
1542 1326 26
1543 1326 26
1544 1326 26
1331 1330 58
1332 1330 58
1333 1330 58
1337 1330 37
1338 1330 37
1339 1330 37
1344 1330 40
1345 1330 40
1346 1330 40
1347 1330 58
1348 1330 58
1349 1330 58
1350 1330 37
1351 1330 37
1352 1330 37
1456 1330 38
1457 1330 38
1462 1330 38
1463 1330 38
1464 1330 38
1465 1330 38
1466 1330 38
1470 1330 26
1471 1330 26
1472 1330 26
1473 1330 26
1474 1330 26
1479 1330 26
1480 1330 26
1332 1331 58
1333 1331 58
1337 1331 37
1338 1331 37
1339 1331 37
1344 1331 40
1345 1331 40
1346 1331 40
1347 1331 58
1348 1331 58
1349 1331 58
1350 1331 37
1351 1331 37
1352 1331 37
1456 1331 38
1457 1331 38
1462 1331 38
1463 1331 38
1464 1331 38
1465 1331 38
1466 1331 38
1470 1331 26
1471 1331 26
1472 1331 26
1473 1331 26
1474 1331 26
1479 1331 26
1480 1331 26
1333 1332 58
1337 1332 37
1338 1332 37
1339 1332 37
1344 1332 40
1345 1332 40
1346 1332 40
1347 1332 58
1348 1332 58
1349 1332 58
1350 1332 37
1351 1332 37
1352 1332 37
1456 1332 38
1457 1332 38
1462 1332 38
1463 1332 38
1464 1332 38
1465 1332 38
1466 1332 38
1470 1332 26
1471 1332 26
1472 1332 26
1473 1332 26
1474 1332 26
1479 1332 26
1480 1332 26
1337 1333 37
1338 1333 37
1339 1333 37
1344 1333 40
1345 1333 40
1346 1333 40
1347 1333 58
1348 1333 58
1349 1333 58
1350 1333 37
1351 1333 37
1352 1333 37
1456 1333 38
1457 1333 38
1462 1333 38
1463 1333 38
1464 1333 38
1465 1333 38
1466 1333 38
1470 1333 26
1471 1333 26
1472 1333 26
1473 1333 26
1474 1333 26
1479 1333 26
1480 1333 26
1338 1337 37
1339 1337 37
1347 1337 37
1348 1337 37
1349 1337 37
1350 1337 37
1351 1337 37
1352 1337 37
1339 1338 37
1347 1338 37
1348 1338 37
1349 1338 37
1350 1338 37
1351 1338 37
1352 1338 37
1347 1339 37
1348 1339 37
1349 1339 37
1350 1339 37
1351 1339 37
1352 1339 37
1345 1344 61
1346 1344 61
1347 1344 40
1348 1344 40
1349 1344 40
1456 1344 26
1457 1344 26
1462 1344 26
1463 1344 26
1464 1344 26
1465 1344 26
1466 1344 26
1470 1344 40
1471 1344 40
1472 1344 40
1473 1344 40
1474 1344 40
1479 1344 40
1480 1344 40
1534 1344 26
1535 1344 26
1540 1344 26
1541 1344 26
1542 1344 26
1543 1344 26
1544 1344 26
1346 1345 61
1347 1345 40
1348 1345 40
1349 1345 40
1456 1345 26
1457 1345 26
1462 1345 26
1463 1345 26
1464 1345 26
1465 1345 26
1466 1345 26
1470 1345 40
1471 1345 40
1472 1345 40
1473 1345 40
1474 1345 40
1479 1345 40
1480 1345 40
1534 1345 26
1535 1345 26
1540 1345 26
1541 1345 26
1542 1345 26
1543 1345 26
1544 1345 26
1347 1346 40
1348 1346 40
1349 1346 40
1456 1346 26
1457 1346 26
1462 1346 26
1463 1346 26
1464 1346 26
1465 1346 26
1466 1346 26
1470 1346 40
1471 1346 40
1472 1346 40
1473 1346 40
1474 1346 40
1479 1346 40
1480 1346 40
1534 1346 26
1535 1346 26
1540 1346 26
1541 1346 26
1542 1346 26
1543 1346 26
1544 1346 26
1348 1347 58
1349 1347 58
1350 1347 37
1351 1347 37
1352 1347 37
1456 1347 38
1457 1347 38
1462 1347 38
1463 1347 38
1464 1347 38
1465 1347 38
1466 1347 38
1470 1347 26
1471 1347 26
1472 1347 26
1473 1347 26
1474 1347 26
1479 1347 26
1480 1347 26
1349 1348 58
1350 1348 37
1351 1348 37
1352 1348 37
1456 1348 38
1457 1348 38
1462 1348 38
1463 1348 38
1464 1348 38
1465 1348 38
1466 1348 38
1470 1348 26
1471 1348 26
1472 1348 26
1473 1348 26
1474 1348 26
1479 1348 26
1480 1348 26
1350 1349 37
1351 1349 37
1352 1349 37
1456 1349 38
1457 1349 38
1462 1349 38
1463 1349 38
1464 1349 38
1465 1349 38
1466 1349 38
1470 1349 26
1471 1349 26
1472 1349 26
1473 1349 26
1474 1349 26
1479 1349 26
1480 1349 26
1351 1350 37
1352 1350 37
1352 1351 37
1371 1370 61
1372 1370 61
1373 1370 61
1374 1370 61
1375 1370 60
1376 1370 60
1383 1370 40
1384 1370 40
1385 1370 40
1388 1370 40
1389 1370 40
1399 1370 40
1400 1370 40
1442 1370 26
1443 1370 26
1444 1370 26
1445 1370 26
1450 1370 26
1451 1370 26
1452 1370 26
1481 1370 40
1482 1370 40
1487 1370 40
1488 1370 40
1489 1370 40
1490 1370 40
1491 1370 40
1492 1370 26
1493 1370 26
1498 1370 26
1499 1370 26
1500 1370 26
1501 1370 26
1502 1370 26
1372 1371 61
1373 1371 61
1374 1371 61
1375 1371 60
1376 1371 60
1383 1371 40
1384 1371 40
1385 1371 40
1388 1371 40
1389 1371 40
1399 1371 40
1400 1371 40
1442 1371 26
1443 1371 26
1444 1371 26
1445 1371 26
1450 1371 26
1451 1371 26
1452 1371 26
1481 1371 40
1482 1371 40
1487 1371 40
1488 1371 40
1489 1371 40
1490 1371 40
1491 1371 40
1492 1371 26
1493 1371 26
1498 1371 26
1499 1371 26
1500 1371 26
1501 1371 26
1502 1371 26
1373 1372 61
1374 1372 61
1375 1372 60
1376 1372 60
1383 1372 40
1384 1372 40
1385 1372 40
1388 1372 40
1389 1372 40
1399 1372 40
1400 1372 40
1442 1372 26
1443 1372 26
1444 1372 26
1445 1372 26
1450 1372 26
1451 1372 26
1452 1372 26
1481 1372 40
1482 1372 40
1487 1372 40
1488 1372 40
1489 1372 40
1490 1372 40
1491 1372 40
1492 1372 26
1493 1372 26
1498 1372 26
1499 1372 26
1500 1372 26
1501 1372 26
1502 1372 26
1374 1373 61
1375 1373 60
1376 1373 60
1383 1373 40
1384 1373 40
1385 1373 40
1388 1373 40
1389 1373 40
1399 1373 40
1400 1373 40
1442 1373 26
1443 1373 26
1444 1373 26
1445 1373 26
1450 1373 26
1451 1373 26
1452 1373 26
1481 1373 40
1482 1373 40
1487 1373 40
1488 1373 40
1489 1373 40
1490 1373 40
1491 1373 40
1492 1373 26
1493 1373 26
1498 1373 26
1499 1373 26
1500 1373 26
1501 1373 26
1502 1373 26
1375 1374 60
1376 1374 60
1383 1374 40
1384 1374 40
1385 1374 40
1388 1374 40
1389 1374 40
1399 1374 40
1400 1374 40
1442 1374 26
1443 1374 26
1444 1374 26
1445 1374 26
1450 1374 26
1451 1374 26
1452 1374 26
1481 1374 40
1482 1374 40
1487 1374 40
1488 1374 40
1489 1374 40
1490 1374 40
1491 1374 40
1492 1374 26
1493 1374 26
1498 1374 26
1499 1374 26
1500 1374 26
1501 1374 26
1502 1374 26
1376 1375 60
1383 1375 40
1384 1375 40
1385 1375 40
1388 1375 40
1389 1375 40
1399 1375 40
1400 1375 40
1442 1375 26
1443 1375 26
1444 1375 26
1445 1375 26
1450 1375 26
1451 1375 26
1452 1375 26
1481 1375 39
1482 1375 39
1487 1375 39
1488 1375 39
1489 1375 39
1490 1375 39
1491 1375 39
1492 1375 25
1493 1375 25
1498 1375 25
1499 1375 25
1500 1375 25
1501 1375 25
1502 1375 25
1383 1376 40
1384 1376 40
1385 1376 40
1388 1376 40
1389 1376 40
1399 1376 40
1400 1376 40
1442 1376 26
1443 1376 26
1444 1376 26
1445 1376 26
1450 1376 26
1451 1376 26
1452 1376 26
1481 1376 39
1482 1376 39
1487 1376 39
1488 1376 39
1489 1376 39
1490 1376 39
1491 1376 39
1492 1376 25
1493 1376 25
1498 1376 25
1499 1376 25
1500 1376 25
1501 1376 25
1502 1376 25
1381 1380 37
1382 1380 37
1383 1380 37
1384 1380 37
1385 1380 37
1386 1380 37
1387 1380 37
1388 1380 37
1389 1380 37
1390 1380 37
1399 1380 37
1400 1380 37
1382 1381 37
1383 1381 37
1384 1381 37
1385 1381 37
1386 1381 37
1387 1381 37
1388 1381 37
1389 1381 37
1390 1381 37
1399 1381 37
1400 1381 37
1383 1382 37
1384 1382 37
1385 1382 37
1386 1382 37
1387 1382 37
1388 1382 37
1389 1382 37
1390 1382 37
1399 1382 37
1400 1382 37
1384 1383 58
1385 1383 58
1386 1383 37
1387 1383 37
1388 1383 58
1389 1383 58
1390 1383 37
1399 1383 58
1400 1383 58
1442 1383 38
1443 1383 38
1444 1383 38
1445 1383 38
1450 1383 38
1451 1383 38
1452 1383 38
1481 1383 26
1482 1383 26
1487 1383 26
1488 1383 26
1489 1383 26
1490 1383 26
1491 1383 26
1385 1384 58
1386 1384 37
1387 1384 37
1388 1384 58
1389 1384 58
1390 1384 37
1399 1384 58
1400 1384 58
1442 1384 38
1443 1384 38
1444 1384 38
1445 1384 38
1450 1384 38
1451 1384 38
1452 1384 38
1481 1384 26
1482 1384 26
1487 1384 26
1488 1384 26
1489 1384 26
1490 1384 26
1491 1384 26
1386 1385 37
1387 1385 37
1388 1385 58
1389 1385 58
1390 1385 37
1399 1385 58
1400 1385 58
1442 1385 38
1443 1385 38
1444 1385 38
1445 1385 38
1450 1385 38
1451 1385 38
1452 1385 38
1481 1385 26
1482 1385 26
1487 1385 26
1488 1385 26
1489 1385 26
1490 1385 26
1491 1385 26
1387 1386 37
1388 1386 37
1389 1386 37
1390 1386 37
1399 1386 37
1400 1386 37
1388 1387 37
1389 1387 37
1390 1387 37
1399 1387 37
1400 1387 37
1389 1388 58
1390 1388 37
1399 1388 58
1400 1388 58
1442 1388 38
1443 1388 38
1444 1388 38
1445 1388 38
1450 1388 38
1451 1388 38
1452 1388 38
1481 1388 26
1482 1388 26
1487 1388 26
1488 1388 26
1489 1388 26
1490 1388 26
1491 1388 26
1390 1389 37
1399 1389 58
1400 1389 58
1442 1389 38
1443 1389 38
1444 1389 38
1445 1389 38
1450 1389 38
1451 1389 38
1452 1389 38
1481 1389 26
1482 1389 26
1487 1389 26
1488 1389 26
1489 1389 26
1490 1389 26
1491 1389 26
1399 1390 37
1400 1390 37
1400 1399 58
1442 1399 38
1443 1399 38
1444 1399 38
1445 1399 38
1450 1399 38
1451 1399 38
1452 1399 38
1481 1399 26
1482 1399 26
1487 1399 26
1488 1399 26
1489 1399 26
1490 1399 26
1491 1399 26
1442 1400 38
1443 1400 38
1444 1400 38
1445 1400 38
1450 1400 38
1451 1400 38
1452 1400 38
1481 1400 26
1482 1400 26
1487 1400 26
1488 1400 26
1489 1400 26
1490 1400 26
1491 1400 26
1420 1419 37
1421 1419 37
1426 1419 37
1427 1419 37
1428 1419 37
1442 1419 37
1443 1419 37
1444 1419 37
1445 1419 37
1450 1419 37
1451 1419 37
1452 1419 37
1421 1420 37
1426 1420 37
1427 1420 37
1428 1420 37
1442 1420 37
1443 1420 37
1444 1420 37
1445 1420 37
1450 1420 37
1451 1420 37
1452 1420 37
1426 1421 37
1427 1421 37
1428 1421 37
1442 1421 37
1443 1421 37
1444 1421 37
1445 1421 37
1450 1421 37
1451 1421 37
1452 1421 37
1427 1426 37
1428 1426 37
1442 1426 37
1443 1426 37
1444 1426 37
1445 1426 37
1450 1426 37
1451 1426 37
1452 1426 37
1428 1427 37
1442 1427 37
1443 1427 37
1444 1427 37
1445 1427 37
1450 1427 37
1451 1427 37
1452 1427 37
1442 1428 37
1443 1428 37
1444 1428 37
1445 1428 37
1450 1428 37
1451 1428 37
1452 1428 37
1433 1432 37
1434 1432 37
1435 1432 37
1436 1432 37
1437 1432 37
1456 1432 37
1457 1432 37
1462 1432 37
1463 1432 37
1464 1432 37
1465 1432 37
1466 1432 37
1434 1433 37
1435 1433 37
1436 1433 37
1437 1433 37
1456 1433 37
1457 1433 37
1462 1433 37
1463 1433 37
1464 1433 37
1465 1433 37
1466 1433 37
1435 1434 37
1436 1434 37
1437 1434 37
1456 1434 37
1457 1434 37
1462 1434 37
1463 1434 37
1464 1434 37
1465 1434 37
1466 1434 37
1436 1435 37
1437 1435 37
1456 1435 37
1457 1435 37
1462 1435 37
1463 1435 37
1464 1435 37
1465 1435 37
1466 1435 37
1437 1436 37
1456 1436 37
1457 1436 37
1462 1436 37
1463 1436 37
1464 1436 37
1465 1436 37
1466 1436 37
1456 1437 37
1457 1437 37
1462 1437 37
1463 1437 37
1464 1437 37
1465 1437 37
1466 1437 37
1443 1442 58
1444 1442 58
1445 1442 58
1450 1442 58
1451 1442 58
1452 1442 58
1481 1442 40
1482 1442 40
1487 1442 40
1488 1442 40
1489 1442 40
1490 1442 40
1491 1442 40
1719 1442 38
1720 1442 38
1721 1442 38
1730 1442 38
1731 1442 38
1737 1442 38
1738 1442 38
1770 1442 26
1771 1442 26
1777 1442 26
1778 1442 26
1790 1442 26
1791 1442 26
1792 1442 26
1444 1443 58
1445 1443 58
1450 1443 58
1451 1443 58
1452 1443 58
1481 1443 40
1482 1443 40
1487 1443 40
1488 1443 40
1489 1443 40
1490 1443 40
1491 1443 40
1719 1443 38
1720 1443 38
1721 1443 38
1730 1443 38
1731 1443 38
1737 1443 38
1738 1443 38
1770 1443 26
1771 1443 26
1777 1443 26
1778 1443 26
1790 1443 26
1791 1443 26
1792 1443 26
1445 1444 58
1450 1444 58
1451 1444 58
1452 1444 58
1481 1444 40
1482 1444 40
1487 1444 40
1488 1444 40
1489 1444 40
1490 1444 40
1491 1444 40
1719 1444 38
1720 1444 38
1721 1444 38
1730 1444 38
1731 1444 38
1737 1444 38
1738 1444 38
1770 1444 26
1771 1444 26
1777 1444 26
1778 1444 26
1790 1444 26
1791 1444 26
1792 1444 26
1450 1445 58
1451 1445 58
1452 1445 58
1481 1445 40
1482 1445 40
1487 1445 40
1488 1445 40
1489 1445 40
1490 1445 40
1491 1445 40
1719 1445 38
1720 1445 38
1721 1445 38
1730 1445 38
1731 1445 38
1737 1445 38
1738 1445 38
1770 1445 26
1771 1445 26
1777 1445 26
1778 1445 26
1790 1445 26
1791 1445 26
1792 1445 26
1451 1450 58
1452 1450 58
1481 1450 40
1482 1450 40
1487 1450 40
1488 1450 40
1489 1450 40
1490 1450 40
1491 1450 40
1719 1450 38
1720 1450 38
1721 1450 38
1730 1450 38
1731 1450 38
1737 1450 38
1738 1450 38
1770 1450 26
1771 1450 26
1777 1450 26
1778 1450 26
1790 1450 26
1791 1450 26
1792 1450 26
1452 1451 58
1481 1451 40
1482 1451 40
1487 1451 40
1488 1451 40
1489 1451 40
1490 1451 40
1491 1451 40
1719 1451 38
1720 1451 38
1721 1451 38
1730 1451 38
1731 1451 38
1737 1451 38
1738 1451 38
1770 1451 26
1771 1451 26
1777 1451 26
1778 1451 26
1790 1451 26
1791 1451 26
1792 1451 26
1481 1452 40
1482 1452 40
1487 1452 40
1488 1452 40
1489 1452 40
1490 1452 40
1491 1452 40
1719 1452 38
1720 1452 38
1721 1452 38
1730 1452 38
1731 1452 38
1737 1452 38
1738 1452 38
1770 1452 26
1771 1452 26
1777 1452 26
1778 1452 26
1790 1452 26
1791 1452 26
1792 1452 26
1457 1456 58
1462 1456 58
1463 1456 58
1464 1456 58
1465 1456 58
1466 1456 58
1470 1456 40
1471 1456 40
1472 1456 40
1473 1456 40
1474 1456 40
1479 1456 40
1480 1456 40
1658 1456 38
1659 1456 38
1660 1456 38
1661 1456 38
1665 1456 38
1666 1456 38
1667 1456 38
1802 1456 26
1803 1456 26
1817 1456 26
1818 1456 26
1819 1456 26
1827 1456 26
1828 1456 26
1462 1457 58
1463 1457 58
1464 1457 58
1465 1457 58
1466 1457 58
1470 1457 40
1471 1457 40
1472 1457 40
1473 1457 40
1474 1457 40
1479 1457 40
1480 1457 40
1658 1457 38
1659 1457 38
1660 1457 38
1661 1457 38
1665 1457 38
1666 1457 38
1667 1457 38
1802 1457 26
1803 1457 26
1817 1457 26
1818 1457 26
1819 1457 26
1827 1457 26
1828 1457 26
1463 1462 58
1464 1462 58
1465 1462 58
1466 1462 58
1470 1462 40
1471 1462 40
1472 1462 40
1473 1462 40
1474 1462 40
1479 1462 40
1480 1462 40
1658 1462 38
1659 1462 38
1660 1462 38
1661 1462 38
1665 1462 38
1666 1462 38
1667 1462 38
1802 1462 26
1803 1462 26
1817 1462 26
1818 1462 26
1819 1462 26
1827 1462 26
1828 1462 26
1464 1463 58
1465 1463 58
1466 1463 58
1470 1463 40
1471 1463 40
1472 1463 40
1473 1463 40
1474 1463 40
1479 1463 40
1480 1463 40
1658 1463 38
1659 1463 38
1660 1463 38
1661 1463 38
1665 1463 38
1666 1463 38
1667 1463 38
1802 1463 26
1803 1463 26
1817 1463 26
1818 1463 26
1819 1463 26
1827 1463 26
1828 1463 26
1465 1464 58
1466 1464 58
1470 1464 40
1471 1464 40
1472 1464 40
1473 1464 40
1474 1464 40
1479 1464 40
1480 1464 40
1658 1464 38
1659 1464 38
1660 1464 38
1661 1464 38
1665 1464 38
1666 1464 38
1667 1464 38
1802 1464 26
1803 1464 26
1817 1464 26
1818 1464 26
1819 1464 26
1827 1464 26
1828 1464 26
1466 1465 58
1470 1465 40
1471 1465 40
1472 1465 40
1473 1465 40
1474 1465 40
1479 1465 40
1480 1465 40
1658 1465 38
1659 1465 38
1660 1465 38
1661 1465 38
1665 1465 38
1666 1465 38
1667 1465 38
1802 1465 26
1803 1465 26
1817 1465 26
1818 1465 26
1819 1465 26
1827 1465 26
1828 1465 26
1470 1466 40
1471 1466 40
1472 1466 40
1473 1466 40
1474 1466 40
1479 1466 40
1480 1466 40
1658 1466 38
1659 1466 38
1660 1466 38
1661 1466 38
1665 1466 38
1666 1466 38
1667 1466 38
1802 1466 26
1803 1466 26
1817 1466 26
1818 1466 26
1819 1466 26
1827 1466 26
1828 1466 26
1471 1470 61
1472 1470 61
1473 1470 61
1474 1470 61
1479 1470 61
1480 1470 61
1534 1470 40
1535 1470 40
1540 1470 40
1541 1470 40
1542 1470 40
1543 1470 40
1544 1470 40
1658 1470 26
1659 1470 26
1660 1470 26
1661 1470 26
1665 1470 26
1666 1470 26
1667 1470 26
1802 1470 40
1803 1470 40
1817 1470 40
1818 1470 40
1819 1470 40
1827 1470 40
1828 1470 40
1935 1470 26
1936 1470 26
1937 1470 26
1953 1470 26
1954 1470 26
1992 1470 26
1993 1470 26
1472 1471 61
1473 1471 61
1474 1471 61
1479 1471 61
1480 1471 61
1534 1471 40
1535 1471 40
1540 1471 40
1541 1471 40
1542 1471 40
1543 1471 40
1544 1471 40
1658 1471 26
1659 1471 26
1660 1471 26
1661 1471 26
1665 1471 26
1666 1471 26
1667 1471 26
1802 1471 40
1803 1471 40
1817 1471 40
1818 1471 40
1819 1471 40
1827 1471 40
1828 1471 40
1935 1471 26
1936 1471 26
1937 1471 26
1953 1471 26
1954 1471 26
1992 1471 26
1993 1471 26
1473 1472 61
1474 1472 61
1479 1472 61
1480 1472 61
1534 1472 40
1535 1472 40
1540 1472 40
1541 1472 40
1542 1472 40
1543 1472 40
1544 1472 40
1658 1472 26
1659 1472 26
1660 1472 26
1661 1472 26
1665 1472 26
1666 1472 26
1667 1472 26
1802 1472 40
1803 1472 40
1817 1472 40
1818 1472 40
1819 1472 40
1827 1472 40
1828 1472 40
1935 1472 26
1936 1472 26
1937 1472 26
1953 1472 26
1954 1472 26
1992 1472 26
1993 1472 26
1474 1473 61
1479 1473 61
1480 1473 61
1534 1473 40
1535 1473 40
1540 1473 40
1541 1473 40
1542 1473 40
1543 1473 40
1544 1473 40
1658 1473 26
1659 1473 26
1660 1473 26
1661 1473 26
1665 1473 26
1666 1473 26
1667 1473 26
1802 1473 40
1803 1473 40
1817 1473 40
1818 1473 40
1819 1473 40
1827 1473 40
1828 1473 40
1935 1473 26
1936 1473 26
1937 1473 26
1953 1473 26
1954 1473 26
1992 1473 26
1993 1473 26
1479 1474 61
1480 1474 61
1534 1474 40
1535 1474 40
1540 1474 40
1541 1474 40
1542 1474 40
1543 1474 40
1544 1474 40
1658 1474 26
1659 1474 26
1660 1474 26
1661 1474 26
1665 1474 26
1666 1474 26
1667 1474 26
1802 1474 40
1803 1474 40
1817 1474 40
1818 1474 40
1819 1474 40
1827 1474 40
1828 1474 40
1935 1474 26
1936 1474 26
1937 1474 26
1953 1474 26
1954 1474 26
1992 1474 26
1993 1474 26
1480 1479 61
1534 1479 40
1535 1479 40
1540 1479 40
1541 1479 40
1542 1479 40
1543 1479 40
1544 1479 40
1658 1479 26
1659 1479 26
1660 1479 26
1661 1479 26
1665 1479 26
1666 1479 26
1667 1479 26
1802 1479 40
1803 1479 40
1817 1479 40
1818 1479 40
1819 1479 40
1827 1479 40
1828 1479 40
1935 1479 26
1936 1479 26
1937 1479 26
1953 1479 26
1954 1479 26
1992 1479 26
1993 1479 26
1534 1480 40
1535 1480 40
1540 1480 40
1541 1480 40
1542 1480 40
1543 1480 40
1544 1480 40
1658 1480 26
1659 1480 26
1660 1480 26
1661 1480 26
1665 1480 26
1666 1480 26
1667 1480 26
1802 1480 40
1803 1480 40
1817 1480 40
1818 1480 40
1819 1480 40
1827 1480 40
1828 1480 40
1935 1480 26
1936 1480 26
1937 1480 26
1953 1480 26
1954 1480 26
1992 1480 26
1993 1480 26
1482 1481 61
1487 1481 61
1488 1481 61
1489 1481 61
1490 1481 61
1491 1481 61
1492 1481 40
1493 1481 40
1498 1481 40
1499 1481 40
1500 1481 40
1501 1481 40
1502 1481 40
1719 1481 26
1720 1481 26
1721 1481 26
1730 1481 26
1731 1481 26
1737 1481 26
1738 1481 26
1770 1481 40
1771 1481 40
1777 1481 40
1778 1481 40
1790 1481 40
1791 1481 40
1792 1481 40
1834 1481 26
1835 1481 26
1853 1481 26
1854 1481 26
1876 1481 26
1877 1481 26
1878 1481 26
1487 1482 61
1488 1482 61
1489 1482 61
1490 1482 61
1491 1482 61
1492 1482 40
1493 1482 40
1498 1482 40
1499 1482 40
1500 1482 40
1501 1482 40
1502 1482 40
1719 1482 26
1720 1482 26
1721 1482 26
1730 1482 26
1731 1482 26
1737 1482 26
1738 1482 26
1770 1482 40
1771 1482 40
1777 1482 40
1778 1482 40
1790 1482 40
1791 1482 40
1792 1482 40
1834 1482 26
1835 1482 26
1853 1482 26
1854 1482 26
1876 1482 26
1877 1482 26
1878 1482 26
1488 1487 61
1489 1487 61
1490 1487 61
1491 1487 61
1492 1487 40
1493 1487 40
1498 1487 40
1499 1487 40
1500 1487 40
1501 1487 40
1502 1487 40
1719 1487 26
1720 1487 26
1721 1487 26
1730 1487 26
1731 1487 26
1737 1487 26
1738 1487 26
1770 1487 40
1771 1487 40
1777 1487 40
1778 1487 40
1790 1487 40
1791 1487 40
1792 1487 40
1834 1487 26
1835 1487 26
1853 1487 26
1854 1487 26
1876 1487 26
1877 1487 26
1878 1487 26
1489 1488 61
1490 1488 61
1491 1488 61
1492 1488 40
1493 1488 40
1498 1488 40
1499 1488 40
1500 1488 40
1501 1488 40
1502 1488 40
1719 1488 26
1720 1488 26
1721 1488 26
1730 1488 26
1731 1488 26
1737 1488 26
1738 1488 26
1770 1488 40
1771 1488 40
1777 1488 40
1778 1488 40
1790 1488 40
1791 1488 40
1792 1488 40
1834 1488 26
1835 1488 26
1853 1488 26
1854 1488 26
1876 1488 26
1877 1488 26
1878 1488 26
1490 1489 61
1491 1489 61
1492 1489 40
1493 1489 40
1498 1489 40
1499 1489 40
1500 1489 40
1501 1489 40
1502 1489 40
1719 1489 26
1720 1489 26
1721 1489 26
1730 1489 26
1731 1489 26
1737 1489 26
1738 1489 26
1770 1489 40
1771 1489 40
1777 1489 40
1778 1489 40
1790 1489 40
1791 1489 40
1792 1489 40
1834 1489 26
1835 1489 26
1853 1489 26
1854 1489 26
1876 1489 26
1877 1489 26
1878 1489 26
1491 1490 61
1492 1490 40
1493 1490 40
1498 1490 40
1499 1490 40
1500 1490 40
1501 1490 40
1502 1490 40
1719 1490 26
1720 1490 26
1721 1490 26
1730 1490 26
1731 1490 26
1737 1490 26
1738 1490 26
1770 1490 40
1771 1490 40
1777 1490 40
1778 1490 40
1790 1490 40
1791 1490 40
1792 1490 40
1834 1490 26
1835 1490 26
1853 1490 26
1854 1490 26
1876 1490 26
1877 1490 26
1878 1490 26
1492 1491 40
1493 1491 40
1498 1491 40
1499 1491 40
1500 1491 40
1501 1491 40
1502 1491 40
1719 1491 26
1720 1491 26
1721 1491 26
1730 1491 26
1731 1491 26
1737 1491 26
1738 1491 26
1770 1491 40
1771 1491 40
1777 1491 40
1778 1491 40
1790 1491 40
1791 1491 40
1792 1491 40
1834 1491 26
1835 1491 26
1853 1491 26
1854 1491 26
1876 1491 26
1877 1491 26
1878 1491 26
1493 1492 58
1498 1492 58
1499 1492 58
1500 1492 58
1501 1492 58
1502 1492 58
1503 1492 37
1504 1492 37
1505 1492 37
1510 1492 37
1511 1492 37
1512 1492 37
1770 1492 26
1771 1492 26
1777 1492 26
1778 1492 26
1790 1492 26
1791 1492 26
1792 1492 26
1834 1492 38
1835 1492 38
1853 1492 38
1854 1492 38
1876 1492 38
1877 1492 38
1878 1492 38
1498 1493 58
1499 1493 58
1500 1493 58
1501 1493 58
1502 1493 58
1503 1493 37
1504 1493 37
1505 1493 37
1510 1493 37
1511 1493 37
1512 1493 37
1770 1493 26
1771 1493 26
1777 1493 26
1778 1493 26
1790 1493 26
1791 1493 26
1792 1493 26
1834 1493 38
1835 1493 38
1853 1493 38
1854 1493 38
1876 1493 38
1877 1493 38
1878 1493 38
1499 1498 58
1500 1498 58
1501 1498 58
1502 1498 58
1503 1498 37
1504 1498 37
1505 1498 37
1510 1498 37
1511 1498 37
1512 1498 37
1770 1498 26
1771 1498 26
1777 1498 26
1778 1498 26
1790 1498 26
1791 1498 26
1792 1498 26
1834 1498 38
1835 1498 38
1853 1498 38
1854 1498 38
1876 1498 38
1877 1498 38
1878 1498 38
1500 1499 58
1501 1499 58
1502 1499 58
1503 1499 37
1504 1499 37
1505 1499 37
1510 1499 37
1511 1499 37
1512 1499 37
1770 1499 26
1771 1499 26
1777 1499 26
1778 1499 26
1790 1499 26
1791 1499 26
1792 1499 26
1834 1499 38
1835 1499 38
1853 1499 38
1854 1499 38
1876 1499 38
1877 1499 38
1878 1499 38
1501 1500 58
1502 1500 58
1503 1500 37
1504 1500 37
1505 1500 37
1510 1500 37
1511 1500 37
1512 1500 37
1770 1500 26
1771 1500 26
1777 1500 26
1778 1500 26
1790 1500 26
1791 1500 26
1792 1500 26
1834 1500 38
1835 1500 38
1853 1500 38
1854 1500 38
1876 1500 38
1877 1500 38
1878 1500 38
1502 1501 58
1503 1501 37
1504 1501 37
1505 1501 37
1510 1501 37
1511 1501 37
1512 1501 37
1770 1501 26
1771 1501 26
1777 1501 26
1778 1501 26
1790 1501 26
1791 1501 26
1792 1501 26
1834 1501 38
1835 1501 38
1853 1501 38
1854 1501 38
1876 1501 38
1877 1501 38
1878 1501 38
1503 1502 37
1504 1502 37
1505 1502 37
1510 1502 37
1511 1502 37
1512 1502 37
1770 1502 26
1771 1502 26
1777 1502 26
1778 1502 26
1790 1502 26
1791 1502 26
1792 1502 26
1834 1502 38
1835 1502 38
1853 1502 38
1854 1502 38
1876 1502 38
1877 1502 38
1878 1502 38
1504 1503 37
1505 1503 37
1510 1503 37
1511 1503 37
1512 1503 37
1505 1504 37
1510 1504 37
1511 1504 37
1512 1504 37
1510 1505 37
1511 1505 37
1512 1505 37
1511 1510 37
1512 1510 37
1512 1511 37
1530 1529 37
1531 1529 37
1532 1529 37
1533 1529 37
1534 1529 37
1535 1529 37
1540 1529 37
1541 1529 37
1542 1529 37
1543 1529 37
1544 1529 37
1550 1529 37
1531 1530 37
1532 1530 37
1533 1530 37
1534 1530 37
1535 1530 37
1540 1530 37
1541 1530 37
1542 1530 37
1543 1530 37
1544 1530 37
1550 1530 37
1532 1531 37
1533 1531 37
1534 1531 37
1535 1531 37
1540 1531 37
1541 1531 37
1542 1531 37
1543 1531 37
1544 1531 37
1550 1531 37
1533 1532 37
1534 1532 37
1535 1532 37
1540 1532 37
1541 1532 37
1542 1532 37
1543 1532 37
1544 1532 37
1550 1532 37
1534 1533 37
1535 1533 37
1540 1533 37
1541 1533 37
1542 1533 37
1543 1533 37
1544 1533 37
1550 1533 37
1535 1534 58
1540 1534 58
1541 1534 58
1542 1534 58
1543 1534 58
1544 1534 58
1550 1534 37
1802 1534 26
1803 1534 26
1817 1534 26
1818 1534 26
1819 1534 26
1827 1534 26
1828 1534 26
1935 1534 38
1936 1534 38
1937 1534 38
1953 1534 38
1954 1534 38
1992 1534 38
1993 1534 38
1540 1535 58
1541 1535 58
1542 1535 58
1543 1535 58
1544 1535 58
1550 1535 37
1802 1535 26
1803 1535 26
1817 1535 26
1818 1535 26
1819 1535 26
1827 1535 26
1828 1535 26
1935 1535 38
1936 1535 38
1937 1535 38
1953 1535 38
1954 1535 38
1992 1535 38
1993 1535 38
1541 1540 58
1542 1540 58
1543 1540 58
1544 1540 58
1550 1540 37
1802 1540 26
1803 1540 26
1817 1540 26
1818 1540 26
1819 1540 26
1827 1540 26
1828 1540 26
1935 1540 38
1936 1540 38
1937 1540 38
1953 1540 38
1954 1540 38
1992 1540 38
1993 1540 38
1542 1541 58
1543 1541 58
1544 1541 58
1550 1541 37
1802 1541 26
1803 1541 26
1817 1541 26
1818 1541 26
1819 1541 26
1827 1541 26
1828 1541 26
1935 1541 38
1936 1541 38
1937 1541 38
1953 1541 38
1954 1541 38
1992 1541 38
1993 1541 38
1543 1542 58
1544 1542 58
1550 1542 37
1802 1542 26
1803 1542 26
1817 1542 26
1818 1542 26
1819 1542 26
1827 1542 26
1828 1542 26
1935 1542 38
1936 1542 38
1937 1542 38
1953 1542 38
1954 1542 38
1992 1542 38
1993 1542 38
1544 1543 58
1550 1543 37
1802 1543 26
1803 1543 26
1817 1543 26
1818 1543 26
1819 1543 26
1827 1543 26
1828 1543 26
1935 1543 38
1936 1543 38
1937 1543 38
1953 1543 38
1954 1543 38
1992 1543 38
1993 1543 38
1550 1544 37
1802 1544 26
1803 1544 26
1817 1544 26
1818 1544 26
1819 1544 26
1827 1544 26
1828 1544 26
1935 1544 38
1936 1544 38
1937 1544 38
1953 1544 38
1954 1544 38
1992 1544 38
1993 1544 38
1580 1579 37
1581 1579 37
1599 1579 37
1600 1579 37
1601 1579 37
1658 1579 37
1659 1579 37
1660 1579 37
1661 1579 37
1665 1579 37
1666 1579 37
1667 1579 37
1581 1580 37
1599 1580 37
1600 1580 37
1601 1580 37
1658 1580 37
1659 1580 37
1660 1580 37
1661 1580 37
1665 1580 37
1666 1580 37
1667 1580 37
1599 1581 37
1600 1581 37
1601 1581 37
1658 1581 37
1659 1581 37
1660 1581 37
1661 1581 37
1665 1581 37
1666 1581 37
1667 1581 37
1587 1586 37
1588 1586 37
1605 1586 37
1606 1586 37
1607 1586 37
1668 1586 37
1669 1586 37
1670 1586 37
1671 1586 37
1682 1586 37
1683 1586 37
1684 1586 37
1588 1587 37
1605 1587 37
1606 1587 37
1607 1587 37
1668 1587 37
1669 1587 37
1670 1587 37
1671 1587 37
1682 1587 37
1683 1587 37
1684 1587 37
1605 1588 37
1606 1588 37
1607 1588 37
1668 1588 37
1669 1588 37
1670 1588 37
1671 1588 37
1682 1588 37
1683 1588 37
1684 1588 37
1600 1599 37
1601 1599 37
1658 1599 37
1659 1599 37
1660 1599 37
1661 1599 37
1665 1599 37
1666 1599 37
1667 1599 37
1601 1600 37
1658 1600 37
1659 1600 37
1660 1600 37
1661 1600 37
1665 1600 37
1666 1600 37
1667 1600 37
1658 1601 37
1659 1601 37
1660 1601 37
1661 1601 37
1665 1601 37
1666 1601 37
1667 1601 37
1606 1605 37
1607 1605 37
1668 1605 37
1669 1605 37
1670 1605 37
1671 1605 37
1682 1605 37
1683 1605 37
1684 1605 37
1607 1606 37
1668 1606 37
1669 1606 37
1670 1606 37
1671 1606 37
1682 1606 37
1683 1606 37
1684 1606 37
1668 1607 37
1669 1607 37
1670 1607 37
1671 1607 37
1682 1607 37
1683 1607 37
1684 1607 37
1636 1629 37
1637 1629 37
1638 1629 37
1648 1629 37
1649 1629 37
1719 1629 37
1720 1629 37
1721 1629 37
1730 1629 37
1731 1629 37
1737 1629 37
1738 1629 37
1635 1634 37
1639 1634 37
1640 1634 37
1641 1634 37
1653 1634 37
1711 1634 37
1712 1634 37
1716 1634 37
1717 1634 37
1718 1634 37
1735 1634 37
1736 1634 37
1639 1635 37
1640 1635 37
1641 1635 37
1653 1635 37
1711 1635 37
1712 1635 37
1716 1635 37
1717 1635 37
1718 1635 37
1735 1635 37
1736 1635 37
1637 1636 37
1638 1636 37
1648 1636 37
1649 1636 37
1719 1636 37
1720 1636 37
1721 1636 37
1730 1636 37
1731 1636 37
1737 1636 37
1738 1636 37
1638 1637 37
1648 1637 37
1649 1637 37
1719 1637 37
1720 1637 37
1721 1637 37
1730 1637 37
1731 1637 37
1737 1637 37
1738 1637 37
1648 1638 37
1649 1638 37
1719 1638 37
1720 1638 37
1721 1638 37
1730 1638 37
1731 1638 37
1737 1638 37
1738 1638 37
1640 1639 37
1641 1639 37
1653 1639 37
1711 1639 37
1712 1639 37
1716 1639 37
1717 1639 37
1718 1639 37
1735 1639 37
1736 1639 37
1641 1640 37
1653 1640 37
1711 1640 37
1712 1640 37
1716 1640 37
1717 1640 37
1718 1640 37
1735 1640 37
1736 1640 37
1653 1641 37
1711 1641 37
1712 1641 37
1716 1641 37
1717 1641 37
1718 1641 37
1735 1641 37
1736 1641 37
1649 1648 37
1719 1648 37
1720 1648 37
1721 1648 37
1730 1648 37
1731 1648 37
1737 1648 37
1738 1648 37
1719 1649 37
1720 1649 37
1721 1649 37
1730 1649 37
1731 1649 37
1737 1649 37
1738 1649 37
1711 1653 37
1712 1653 37
1716 1653 37
1717 1653 37
1718 1653 37
1735 1653 37
1736 1653 37
1659 1658 58
1660 1658 58
1661 1658 58
1665 1658 58
1666 1658 58
1667 1658 58
1668 1658 38
1669 1658 38
1670 1658 38
1671 1658 38
1682 1658 38
1683 1658 38
1684 1658 38
1802 1658 40
1803 1658 40
1807 1658 26
1808 1658 26
1809 1658 26
1817 1658 40
1818 1658 40
1819 1658 40
1820 1658 26
1821 1658 26
1825 1658 26
1826 1658 26
1827 1658 40
1828 1658 40
1660 1659 58
1661 1659 58
1665 1659 58
1666 1659 58
1667 1659 58
1668 1659 38
1669 1659 38
1670 1659 38
1671 1659 38
1682 1659 38
1683 1659 38
1684 1659 38
1802 1659 40
1803 1659 40
1807 1659 26
1808 1659 26
1809 1659 26
1817 1659 40
1818 1659 40
1819 1659 40
1820 1659 26
1821 1659 26
1825 1659 26
1826 1659 26
1827 1659 40
1828 1659 40
1661 1660 58
1665 1660 58
1666 1660 58
1667 1660 58
1668 1660 38
1669 1660 38
1670 1660 38
1671 1660 38
1682 1660 38
1683 1660 38
1684 1660 38
1802 1660 40
1803 1660 40
1807 1660 26
1808 1660 26
1809 1660 26
1817 1660 40
1818 1660 40
1819 1660 40
1820 1660 26
1821 1660 26
1825 1660 26
1826 1660 26
1827 1660 40
1828 1660 40
1665 1661 58
1666 1661 58
1667 1661 58
1668 1661 38
1669 1661 38
1670 1661 38
1671 1661 38
1682 1661 38
1683 1661 38
1684 1661 38
1802 1661 40
1803 1661 40
1807 1661 26
1808 1661 26
1809 1661 26
1817 1661 40
1818 1661 40
1819 1661 40
1820 1661 26
1821 1661 26
1825 1661 26
1826 1661 26
1827 1661 40
1828 1661 40
1666 1665 58
1667 1665 58
1668 1665 38
1669 1665 38
1670 1665 38
1671 1665 38
1682 1665 38
1683 1665 38
1684 1665 38
1802 1665 40
1803 1665 40
1807 1665 26
1808 1665 26
1809 1665 26
1817 1665 40
1818 1665 40
1819 1665 40
1820 1665 26
1821 1665 26
1825 1665 26
1826 1665 26
1827 1665 40
1828 1665 40
1667 1666 58
1668 1666 38
1669 1666 38
1670 1666 38
1671 1666 38
1682 1666 38
1683 1666 38
1684 1666 38
1802 1666 40
1803 1666 40
1807 1666 26
1808 1666 26
1809 1666 26
1817 1666 40
1818 1666 40
1819 1666 40
1820 1666 26
1821 1666 26
1825 1666 26
1826 1666 26
1827 1666 40
1828 1666 40
1668 1667 38
1669 1667 38
1670 1667 38
1671 1667 38
1682 1667 38
1683 1667 38
1684 1667 38
1802 1667 40
1803 1667 40
1807 1667 26
1808 1667 26
1809 1667 26
1817 1667 40
1818 1667 40
1819 1667 40
1820 1667 26
1821 1667 26
1825 1667 26
1826 1667 26
1827 1667 40
1828 1667 40
1669 1668 58
1670 1668 58
1671 1668 58
1675 1668 38
1676 1668 38
1680 1668 38
1681 1668 38
1682 1668 58
1683 1668 58
1684 1668 58
1689 1668 38
1690 1668 38
1691 1668 38
1802 1668 26
1803 1668 26
1804 1668 26
1805 1668 26
1806 1668 26
1807 1668 40
1808 1668 40
1809 1668 40
1810 1668 26
1811 1668 26
1815 1668 26
1816 1668 26
1817 1668 26
1818 1668 26
1819 1668 26
1820 1668 40
1821 1668 40
1825 1668 40
1826 1668 40
1827 1668 26
1828 1668 26
1670 1669 58
1671 1669 58
1675 1669 38
1676 1669 38
1680 1669 38
1681 1669 38
1682 1669 58
1683 1669 58
1684 1669 58
1689 1669 38
1690 1669 38
1691 1669 38
1802 1669 26
1803 1669 26
1804 1669 26
1805 1669 26
1806 1669 26
1807 1669 40
1808 1669 40
1809 1669 40
1810 1669 26
1811 1669 26
1815 1669 26
1816 1669 26
1817 1669 26
1818 1669 26
1819 1669 26
1820 1669 40
1821 1669 40
1825 1669 40
1826 1669 40
1827 1669 26
1828 1669 26
1671 1670 58
1675 1670 38
1676 1670 38
1680 1670 38
1681 1670 38
1682 1670 58
1683 1670 58
1684 1670 58
1689 1670 38
1690 1670 38
1691 1670 38
1802 1670 26
1803 1670 26
1804 1670 26
1805 1670 26
1806 1670 26
1807 1670 40
1808 1670 40
1809 1670 40
1810 1670 26
1811 1670 26
1815 1670 26
1816 1670 26
1817 1670 26
1818 1670 26
1819 1670 26
1820 1670 40
1821 1670 40
1825 1670 40
1826 1670 40
1827 1670 26
1828 1670 26
1675 1671 38
1676 1671 38
1680 1671 38
1681 1671 38
1682 1671 58
1683 1671 58
1684 1671 58
1689 1671 38
1690 1671 38
1691 1671 38
1802 1671 26
1803 1671 26
1804 1671 26
1805 1671 26
1806 1671 26
1807 1671 40
1808 1671 40
1809 1671 40
1810 1671 26
1811 1671 26
1815 1671 26
1816 1671 26
1817 1671 26
1818 1671 26
1819 1671 26
1820 1671 40
1821 1671 40
1825 1671 40
1826 1671 40
1827 1671 26
1828 1671 26
1676 1675 38
1680 1675 38
1681 1675 38
1682 1675 38
1683 1675 38
1684 1675 38
1689 1675 38
1690 1675 38
1691 1675 38
1804 1675 26
1805 1675 26
1806 1675 26
1807 1675 26
1808 1675 26
1809 1675 26
1810 1675 26
1811 1675 26
1815 1675 26
1816 1675 26
1820 1675 26
1821 1675 26
1825 1675 26
1826 1675 26
1680 1676 38
1681 1676 38
1682 1676 38
1683 1676 38
1684 1676 38
1689 1676 38
1690 1676 38
1691 1676 38
1804 1676 26
1805 1676 26
1806 1676 26
1807 1676 26
1808 1676 26
1809 1676 26
1810 1676 26
1811 1676 26
1815 1676 26
1816 1676 26
1820 1676 26
1821 1676 26
1825 1676 26
1826 1676 26
1681 1680 38
1682 1680 38
1683 1680 38
1684 1680 38
1689 1680 38
1690 1680 38
1691 1680 38
1804 1680 26
1805 1680 26
1806 1680 26
1807 1680 26
1808 1680 26
1809 1680 26
1810 1680 26
1811 1680 26
1815 1680 26
1816 1680 26
1820 1680 26
1821 1680 26
1825 1680 26
1826 1680 26
1682 1681 38
1683 1681 38
1684 1681 38
1689 1681 38
1690 1681 38
1691 1681 38
1804 1681 26
1805 1681 26
1806 1681 26
1807 1681 26
1808 1681 26
1809 1681 26
1810 1681 26
1811 1681 26
1815 1681 26
1816 1681 26
1820 1681 26
1821 1681 26
1825 1681 26
1826 1681 26
1683 1682 58
1684 1682 58
1689 1682 38
1690 1682 38
1691 1682 38
1802 1682 26
1803 1682 26
1804 1682 26
1805 1682 26
1806 1682 26
1807 1682 40
1808 1682 40
1809 1682 40
1810 1682 26
1811 1682 26
1815 1682 26
1816 1682 26
1817 1682 26
1818 1682 26
1819 1682 26
1820 1682 40
1821 1682 40
1825 1682 40
1826 1682 40
1827 1682 26
1828 1682 26
1684 1683 58
1689 1683 38
1690 1683 38
1691 1683 38
1802 1683 26
1803 1683 26
1804 1683 26
1805 1683 26
1806 1683 26
1807 1683 40
1808 1683 40
1809 1683 40
1810 1683 26
1811 1683 26
1815 1683 26
1816 1683 26
1817 1683 26
1818 1683 26
1819 1683 26
1820 1683 40
1821 1683 40
1825 1683 40
1826 1683 40
1827 1683 26
1828 1683 26
1689 1684 38
1690 1684 38
1691 1684 38
1802 1684 26
1803 1684 26
1804 1684 26
1805 1684 26
1806 1684 26
1807 1684 40
1808 1684 40
1809 1684 40
1810 1684 26
1811 1684 26
1815 1684 26
1816 1684 26
1817 1684 26
1818 1684 26
1819 1684 26
1820 1684 40
1821 1684 40
1825 1684 40
1826 1684 40
1827 1684 26
1828 1684 26
1690 1689 38
1691 1689 38
1804 1689 26
1805 1689 26
1806 1689 26
1807 1689 26
1808 1689 26
1809 1689 26
1810 1689 26
1811 1689 26
1815 1689 26
1816 1689 26
1820 1689 26
1821 1689 26
1825 1689 26
1826 1689 26
1691 1690 38
1804 1690 26
1805 1690 26
1806 1690 26
1807 1690 26
1808 1690 26
1809 1690 26
1810 1690 26
1811 1690 26
1815 1690 26
1816 1690 26
1820 1690 26
1821 1690 26
1825 1690 26
1826 1690 26
1804 1691 26
1805 1691 26
1806 1691 26
1807 1691 26
1808 1691 26
1809 1691 26
1810 1691 26
1811 1691 26
1815 1691 26
1816 1691 26
1820 1691 26
1821 1691 26
1825 1691 26
1826 1691 26
1710 1709 38
1711 1709 38
1712 1709 38
1716 1709 38
1717 1709 38
1718 1709 38
1722 1709 38
1723 1709 38
1727 1709 38
1728 1709 38
1729 1709 38
1735 1709 38
1736 1709 38
1763 1709 26
1764 1709 26
1768 1709 26
1769 1709 26
1772 1709 26
1773 1709 26
1782 1709 26
1783 1709 26
1784 1709 26
1785 1709 26
1786 1709 26
1787 1709 26
1788 1709 26
1789 1709 26
1711 1710 38
1712 1710 38
1716 1710 38
1717 1710 38
1718 1710 38
1722 1710 38
1723 1710 38
1727 1710 38
1728 1710 38
1729 1710 38
1735 1710 38
1736 1710 38
1763 1710 26
1764 1710 26
1768 1710 26
1769 1710 26
1772 1710 26
1773 1710 26
1782 1710 26
1783 1710 26
1784 1710 26
1785 1710 26
1786 1710 26
1787 1710 26
1788 1710 26
1789 1710 26
1712 1711 58
1716 1711 58
1717 1711 58
1718 1711 58
1719 1711 38
1720 1711 38
1721 1711 38
1722 1711 38
1723 1711 38
1727 1711 38
1728 1711 38
1729 1711 38
1730 1711 38
1731 1711 38
1735 1711 58
1736 1711 58
1737 1711 38
1738 1711 38
1763 1711 26
1764 1711 26
1768 1711 40
1769 1711 40
1770 1711 26
1771 1711 26
1772 1711 40
1773 1711 40
1777 1711 26
1778 1711 26
1782 1711 26
1783 1711 26
1784 1711 40
1785 1711 40
1786 1711 40
1787 1711 26
1788 1711 26
1789 1711 26
1790 1711 26
1791 1711 26
1792 1711 26
1716 1712 58
1717 1712 58
1718 1712 58
1719 1712 38
1720 1712 38
1721 1712 38
1722 1712 38
1723 1712 38
1727 1712 38
1728 1712 38
1729 1712 38
1730 1712 38
1731 1712 38
1735 1712 58
1736 1712 58
1737 1712 38
1738 1712 38
1763 1712 26
1764 1712 26
1768 1712 40
1769 1712 40
1770 1712 26
1771 1712 26
1772 1712 40
1773 1712 40
1777 1712 26
1778 1712 26
1782 1712 26
1783 1712 26
1784 1712 40
1785 1712 40
1786 1712 40
1787 1712 26
1788 1712 26
1789 1712 26
1790 1712 26
1791 1712 26
1792 1712 26
1717 1716 58
1718 1716 58
1719 1716 38
1720 1716 38
1721 1716 38
1722 1716 38
1723 1716 38
1727 1716 38
1728 1716 38
1729 1716 38
1730 1716 38
1731 1716 38
1735 1716 58
1736 1716 58
1737 1716 38
1738 1716 38
1763 1716 26
1764 1716 26
1768 1716 40
1769 1716 40
1770 1716 26
1771 1716 26
1772 1716 40
1773 1716 40
1777 1716 26
1778 1716 26
1782 1716 26
1783 1716 26
1784 1716 40
1785 1716 40
1786 1716 40
1787 1716 26
1788 1716 26
1789 1716 26
1790 1716 26
1791 1716 26
1792 1716 26
1718 1717 58
1719 1717 38
1720 1717 38
1721 1717 38
1722 1717 38
1723 1717 38
1727 1717 38
1728 1717 38
1729 1717 38
1730 1717 38
1731 1717 38
1735 1717 58
1736 1717 58
1737 1717 38
1738 1717 38
1763 1717 26
1764 1717 26
1768 1717 40
1769 1717 40
1770 1717 26
1771 1717 26
1772 1717 40
1773 1717 40
1777 1717 26
1778 1717 26
1782 1717 26
1783 1717 26
1784 1717 40
1785 1717 40
1786 1717 40
1787 1717 26
1788 1717 26
1789 1717 26
1790 1717 26
1791 1717 26
1792 1717 26
1719 1718 38
1720 1718 38
1721 1718 38
1722 1718 38
1723 1718 38
1727 1718 38
1728 1718 38
1729 1718 38
1730 1718 38
1731 1718 38
1735 1718 58
1736 1718 58
1737 1718 38
1738 1718 38
1763 1718 26
1764 1718 26
1768 1718 40
1769 1718 40
1770 1718 26
1771 1718 26
1772 1718 40
1773 1718 40
1777 1718 26
1778 1718 26
1782 1718 26
1783 1718 26
1784 1718 40
1785 1718 40
1786 1718 40
1787 1718 26
1788 1718 26
1789 1718 26
1790 1718 26
1791 1718 26
1792 1718 26
1720 1719 58
1721 1719 58
1730 1719 58
1731 1719 58
1735 1719 38
1736 1719 38
1737 1719 58
1738 1719 58
1768 1719 26
1769 1719 26
1770 1719 40
1771 1719 40
1772 1719 26
1773 1719 26
1777 1719 40
1778 1719 40
1784 1719 26
1785 1719 26
1786 1719 26
1790 1719 40
1791 1719 40
1792 1719 40
1721 1720 58
1730 1720 58
1731 1720 58
1735 1720 38
1736 1720 38
1737 1720 58
1738 1720 58
1768 1720 26
1769 1720 26
1770 1720 40
1771 1720 40
1772 1720 26
1773 1720 26
1777 1720 40
1778 1720 40
1784 1720 26
1785 1720 26
1786 1720 26
1790 1720 40
1791 1720 40
1792 1720 40
1730 1721 58
1731 1721 58
1735 1721 38
1736 1721 38
1737 1721 58
1738 1721 58
1768 1721 26
1769 1721 26
1770 1721 40
1771 1721 40
1772 1721 26
1773 1721 26
1777 1721 40
1778 1721 40
1784 1721 26
1785 1721 26
1786 1721 26
1790 1721 40
1791 1721 40
1792 1721 40
1723 1722 38
1727 1722 38
1728 1722 38
1729 1722 38
1735 1722 38
1736 1722 38
1763 1722 26
1764 1722 26
1768 1722 26
1769 1722 26
1772 1722 26
1773 1722 26
1782 1722 26
1783 1722 26
1784 1722 26
1785 1722 26
1786 1722 26
1787 1722 26
1788 1722 26
1789 1722 26
1727 1723 38
1728 1723 38
1729 1723 38
1735 1723 38
1736 1723 38
1763 1723 26
1764 1723 26
1768 1723 26
1769 1723 26
1772 1723 26
1773 1723 26
1782 1723 26
1783 1723 26
1784 1723 26
1785 1723 26
1786 1723 26
1787 1723 26
1788 1723 26
1789 1723 26
1728 1727 38
1729 1727 38
1735 1727 38
1736 1727 38
1763 1727 26
1764 1727 26
1768 1727 26
1769 1727 26
1772 1727 26
1773 1727 26
1782 1727 26
1783 1727 26
1784 1727 26
1785 1727 26
1786 1727 26
1787 1727 26
1788 1727 26
1789 1727 26
1729 1728 38
1735 1728 38
1736 1728 38
1763 1728 26
1764 1728 26
1768 1728 26
1769 1728 26
1772 1728 26
1773 1728 26
1782 1728 26
1783 1728 26
1784 1728 26
1785 1728 26
1786 1728 26
1787 1728 26
1788 1728 26
1789 1728 26
1735 1729 38
1736 1729 38
1763 1729 26
1764 1729 26
1768 1729 26
1769 1729 26
1772 1729 26
1773 1729 26
1782 1729 26
1783 1729 26
1784 1729 26
1785 1729 26
1786 1729 26
1787 1729 26
1788 1729 26
1789 1729 26
1731 1730 58
1735 1730 38
1736 1730 38
1737 1730 58
1738 1730 58
1768 1730 26
1769 1730 26
1770 1730 40
1771 1730 40
1772 1730 26
1773 1730 26
1777 1730 40
1778 1730 40
1784 1730 26
1785 1730 26
1786 1730 26
1790 1730 40
1791 1730 40
1792 1730 40
1735 1731 38
1736 1731 38
1737 1731 58
1738 1731 58
1768 1731 26
1769 1731 26
1770 1731 40
1771 1731 40
1772 1731 26
1773 1731 26
1777 1731 40
1778 1731 40
1784 1731 26
1785 1731 26
1786 1731 26
1790 1731 40
1791 1731 40
1792 1731 40
1736 1735 58
1737 1735 38
1738 1735 38
1763 1735 26
1764 1735 26
1768 1735 40
1769 1735 40
1770 1735 26
1771 1735 26
1772 1735 40
1773 1735 40
1777 1735 26
1778 1735 26
1782 1735 26
1783 1735 26
1784 1735 40
1785 1735 40
1786 1735 40
1787 1735 26
1788 1735 26
1789 1735 26
1790 1735 26
1791 1735 26
1792 1735 26
1737 1736 38
1738 1736 38
1763 1736 26
1764 1736 26
1768 1736 40
1769 1736 40
1770 1736 26
1771 1736 26
1772 1736 40
1773 1736 40
1777 1736 26
1778 1736 26
1782 1736 26
1783 1736 26
1784 1736 40
1785 1736 40
1786 1736 40
1787 1736 26
1788 1736 26
1789 1736 26
1790 1736 26
1791 1736 26
1792 1736 26
1738 1737 58
1768 1737 26
1769 1737 26
1770 1737 40
1771 1737 40
1772 1737 26
1773 1737 26
1777 1737 40
1778 1737 40
1784 1737 26
1785 1737 26
1786 1737 26
1790 1737 40
1791 1737 40
1792 1737 40
1768 1738 26
1769 1738 26
1770 1738 40
1771 1738 40
1772 1738 26
1773 1738 26
1777 1738 40
1778 1738 40
1784 1738 26
1785 1738 26
1786 1738 26
1790 1738 40
1791 1738 40
1792 1738 40
1764 1763 40
1768 1763 40
1769 1763 40
1772 1763 39
1773 1763 39
1782 1763 40
1783 1763 40
1784 1763 40
1785 1763 40
1786 1763 40
1787 1763 40
1788 1763 40
1789 1763 40
1839 1763 26
1840 1763 26
1841 1763 26
1842 1763 26
1848 1763 26
1849 1763 26
1855 1763 26
1856 1763 26
1873 1763 26
1874 1763 26
1875 1763 26
1879 1763 26
1880 1763 26
1768 1764 40
1769 1764 40
1772 1764 39
1773 1764 39
1782 1764 40
1783 1764 40
1784 1764 40
1785 1764 40
1786 1764 40
1787 1764 40
1788 1764 40
1789 1764 40
1839 1764 26
1840 1764 26
1841 1764 26
1842 1764 26
1848 1764 26
1849 1764 26
1855 1764 26
1856 1764 26
1873 1764 26
1874 1764 26
1875 1764 26
1879 1764 26
1880 1764 26
1769 1768 61
1770 1768 40
1771 1768 40
1772 1768 60
1773 1768 60
1777 1768 40
1778 1768 40
1782 1768 40
1783 1768 40
1784 1768 61
1785 1768 61
1786 1768 61
1787 1768 40
1788 1768 40
1789 1768 40
1790 1768 40
1791 1768 40
1792 1768 40
1834 1768 26
1835 1768 26
1839 1768 26
1840 1768 26
1841 1768 40
1842 1768 40
1848 1768 40
1849 1768 40
1853 1768 26
1854 1768 26
1855 1768 26
1856 1768 26
1873 1768 26
1874 1768 26
1875 1768 26
1876 1768 26
1877 1768 26
1878 1768 26
1879 1768 40
1880 1768 40
1881 1768 38
1770 1769 40
1771 1769 40
1772 1769 60
1773 1769 60
1777 1769 40
1778 1769 40
1782 1769 40
1783 1769 40
1784 1769 61
1785 1769 61
1786 1769 61
1787 1769 40
1788 1769 40
1789 1769 40
1790 1769 40
1791 1769 40
1792 1769 40
1834 1769 26
1835 1769 26
1839 1769 26
1840 1769 26
1841 1769 40
1842 1769 40
1848 1769 40
1849 1769 40
1853 1769 26
1854 1769 26
1855 1769 26
1856 1769 26
1873 1769 26
1874 1769 26
1875 1769 26
1876 1769 26
1877 1769 26
1878 1769 26
1879 1769 40
1880 1769 40
1881 1769 38
1771 1770 61
1772 1770 39
1773 1770 39
1777 1770 61
1778 1770 61
1784 1770 40
1785 1770 40
1786 1770 40
1790 1770 61
1791 1770 61
1792 1770 61
1834 1770 40
1835 1770 40
1841 1770 26
1842 1770 26
1848 1770 26
1849 1770 26
1853 1770 40
1854 1770 40
1876 1770 40
1877 1770 40
1878 1770 40
1879 1770 26
1880 1770 26
1772 1771 39
1773 1771 39
1777 1771 61
1778 1771 61
1784 1771 40
1785 1771 40
1786 1771 40
1790 1771 61
1791 1771 61
1792 1771 61
1834 1771 40
1835 1771 40
1841 1771 26
1842 1771 26
1848 1771 26
1849 1771 26
1853 1771 40
1854 1771 40
1876 1771 40
1877 1771 40
1878 1771 40
1879 1771 26
1880 1771 26
1773 1772 60
1777 1772 39
1778 1772 39
1782 1772 39
1783 1772 39
1784 1772 60
1785 1772 60
1786 1772 60
1787 1772 39
1788 1772 39
1789 1772 39
1790 1772 39
1791 1772 39
1792 1772 39
1834 1772 25
1835 1772 25
1839 1772 25
1840 1772 25
1841 1772 39
1842 1772 39
1848 1772 39
1849 1772 39
1853 1772 25
1854 1772 25
1855 1772 25
1856 1772 25
1873 1772 25
1874 1772 25
1875 1772 25
1876 1772 25
1877 1772 25
1878 1772 25
1879 1772 39
1880 1772 39
1777 1773 39
1778 1773 39
1782 1773 39
1783 1773 39
1784 1773 60
1785 1773 60
1786 1773 60
1787 1773 39
1788 1773 39
1789 1773 39
1790 1773 39
1791 1773 39
1792 1773 39
1834 1773 25
1835 1773 25
1839 1773 25
1840 1773 25
1841 1773 39
1842 1773 39
1848 1773 39
1849 1773 39
1853 1773 25
1854 1773 25
1855 1773 25
1856 1773 25
1873 1773 25
1874 1773 25
1875 1773 25
1876 1773 25
1877 1773 25
1878 1773 25
1879 1773 39
1880 1773 39
1778 1777 61
1784 1777 40
1785 1777 40
1786 1777 40
1790 1777 61
1791 1777 61
1792 1777 61
1834 1777 40
1835 1777 40
1841 1777 26
1842 1777 26
1848 1777 26
1849 1777 26
1853 1777 40
1854 1777 40
1876 1777 40
1877 1777 40
1878 1777 40
1879 1777 26
1880 1777 26
1784 1778 40
1785 1778 40
1786 1778 40
1790 1778 61
1791 1778 61
1792 1778 61
1834 1778 40
1835 1778 40
1841 1778 26
1842 1778 26
1848 1778 26
1849 1778 26
1853 1778 40
1854 1778 40
1876 1778 40
1877 1778 40
1878 1778 40
1879 1778 26
1880 1778 26
1783 1782 40
1784 1782 40
1785 1782 40
1786 1782 40
1787 1782 40
1788 1782 40
1789 1782 40
1839 1782 26
1840 1782 26
1841 1782 26
1842 1782 26
1848 1782 26
1849 1782 26
1855 1782 26
1856 1782 26
1873 1782 26
1874 1782 26
1875 1782 26
1879 1782 26
1880 1782 26
1784 1783 40
1785 1783 40
1786 1783 40
1787 1783 40
1788 1783 40
1789 1783 40
1839 1783 26
1840 1783 26
1841 1783 26
1842 1783 26
1848 1783 26
1849 1783 26
1855 1783 26
1856 1783 26
1873 1783 26
1874 1783 26
1875 1783 26
1879 1783 26
1880 1783 26
1785 1784 61
1786 1784 61
1787 1784 40
1788 1784 40
1789 1784 40
1790 1784 40
1791 1784 40
1792 1784 40
1834 1784 26
1835 1784 26
1839 1784 26
1840 1784 26
1841 1784 40
1842 1784 40
1848 1784 40
1849 1784 40
1853 1784 26
1854 1784 26
1855 1784 26
1856 1784 26
1873 1784 26
1874 1784 26
1875 1784 26
1876 1784 26
1877 1784 26
1878 1784 26
1879 1784 40
1880 1784 40
1881 1784 38
1786 1785 61
1787 1785 40
1788 1785 40
1789 1785 40
1790 1785 40
1791 1785 40
1792 1785 40
1834 1785 26
1835 1785 26
1839 1785 26
1840 1785 26
1841 1785 40
1842 1785 40
1848 1785 40
1849 1785 40
1853 1785 26
1854 1785 26
1855 1785 26
1856 1785 26
1873 1785 26
1874 1785 26
1875 1785 26
1876 1785 26
1877 1785 26
1878 1785 26
1879 1785 40
1880 1785 40
1881 1785 38
1787 1786 40
1788 1786 40
1789 1786 40
1790 1786 40
1791 1786 40
1792 1786 40
1834 1786 26
1835 1786 26
1839 1786 26
1840 1786 26
1841 1786 40
1842 1786 40
1848 1786 40
1849 1786 40
1853 1786 26
1854 1786 26
1855 1786 26
1856 1786 26
1873 1786 26
1874 1786 26
1875 1786 26
1876 1786 26
1877 1786 26
1878 1786 26
1879 1786 40
1880 1786 40
1881 1786 38
1788 1787 40
1789 1787 40
1839 1787 26
1840 1787 26
1841 1787 26
1842 1787 26
1848 1787 26
1849 1787 26
1855 1787 26
1856 1787 26
1873 1787 26
1874 1787 26
1875 1787 26
1879 1787 26
1880 1787 26
1789 1788 40
1839 1788 26
1840 1788 26
1841 1788 26
1842 1788 26
1848 1788 26
1849 1788 26
1855 1788 26
1856 1788 26
1873 1788 26
1874 1788 26
1875 1788 26
1879 1788 26
1880 1788 26
1839 1789 26
1840 1789 26
1841 1789 26
1842 1789 26
1848 1789 26
1849 1789 26
1855 1789 26
1856 1789 26
1873 1789 26
1874 1789 26
1875 1789 26
1879 1789 26
1880 1789 26
1791 1790 61
1792 1790 61
1834 1790 40
1835 1790 40
1841 1790 26
1842 1790 26
1848 1790 26
1849 1790 26
1853 1790 40
1854 1790 40
1876 1790 40
1877 1790 40
1878 1790 40
1879 1790 26
1880 1790 26
1792 1791 61
1834 1791 40
1835 1791 40
1841 1791 26
1842 1791 26
1848 1791 26
1849 1791 26
1853 1791 40
1854 1791 40
1876 1791 40
1877 1791 40
1878 1791 40
1879 1791 26
1880 1791 26
1834 1792 40
1835 1792 40
1841 1792 26
1842 1792 26
1848 1792 26
1849 1792 26
1853 1792 40
1854 1792 40
1876 1792 40
1877 1792 40
1878 1792 40
1879 1792 26
1880 1792 26
1803 1802 61
1807 1802 40
1808 1802 40
1809 1802 40
1817 1802 61
1818 1802 61
1819 1802 61
1820 1802 40
1821 1802 40
1825 1802 40
1826 1802 40
1827 1802 61
1828 1802 61
1935 1802 40
1936 1802 40
1937 1802 40
1953 1802 40
1954 1802 40
1971 1802 26
1972 1802 26
1973 1802 26
1982 1802 26
1983 1802 26
1992 1802 40
1993 1802 40
1999 1802 26
2000 1802 26
1807 1803 40
1808 1803 40
1809 1803 40
1817 1803 61
1818 1803 61
1819 1803 61
1820 1803 40
1821 1803 40
1825 1803 40
1826 1803 40
1827 1803 61
1828 1803 61
1935 1803 40
1936 1803 40
1937 1803 40
1953 1803 40
1954 1803 40
1971 1803 26
1972 1803 26
1973 1803 26
1982 1803 26
1983 1803 26
1992 1803 40
1993 1803 40
1999 1803 26
2000 1803 26
1805 1804 40
1806 1804 40
1807 1804 40
1808 1804 40
1809 1804 40
1810 1804 40
1811 1804 40
1815 1804 40
1816 1804 40
1820 1804 40
1821 1804 40
1825 1804 40
1826 1804 40
1942 1804 26
1943 1804 26
1961 1804 26
1962 1804 26
1971 1804 26
1972 1804 26
1973 1804 26
1979 1804 26
1980 1804 26
1981 1804 26
1982 1804 26
1983 1804 26
1999 1804 26
2000 1804 26
1806 1805 40
1807 1805 40
1808 1805 40
1809 1805 40
1810 1805 40
1811 1805 40
1815 1805 40
1816 1805 40
1820 1805 40
1821 1805 40
1825 1805 40
1826 1805 40
1942 1805 26
1943 1805 26
1961 1805 26
1962 1805 26
1971 1805 26
1972 1805 26
1973 1805 26
1979 1805 26
1980 1805 26
1981 1805 26
1982 1805 26
1983 1805 26
1999 1805 26
2000 1805 26
1807 1806 40
1808 1806 40
1809 1806 40
1810 1806 40
1811 1806 40
1815 1806 40
1816 1806 40
1820 1806 40
1821 1806 40
1825 1806 40
1826 1806 40
1942 1806 26
1943 1806 26
1961 1806 26
1962 1806 26
1971 1806 26
1972 1806 26
1973 1806 26
1979 1806 26
1980 1806 26
1981 1806 26
1982 1806 26
1983 1806 26
1999 1806 26
2000 1806 26
1808 1807 61
1809 1807 61
1810 1807 40
1811 1807 40
1815 1807 40
1816 1807 40
1817 1807 40
1818 1807 40
1819 1807 40
1820 1807 61
1821 1807 61
1825 1807 61
1826 1807 61
1827 1807 40
1828 1807 40
1935 1807 26
1936 1807 26
1937 1807 26
1942 1807 26
1943 1807 26
1953 1807 26
1954 1807 26
1961 1807 26
1962 1807 26
1971 1807 40
1972 1807 40
1973 1807 40
1979 1807 26
1980 1807 26
1981 1807 26
1982 1807 40
1983 1807 40
1992 1807 26
1993 1807 26
1999 1807 40
2000 1807 40
1809 1808 61
1810 1808 40
1811 1808 40
1815 1808 40
1816 1808 40
1817 1808 40
1818 1808 40
1819 1808 40
1820 1808 61
1821 1808 61
1825 1808 61
1826 1808 61
1827 1808 40
1828 1808 40
1935 1808 26
1936 1808 26
1937 1808 26
1942 1808 26
1943 1808 26
1953 1808 26
1954 1808 26
1961 1808 26
1962 1808 26
1971 1808 40
1972 1808 40
1973 1808 40
1979 1808 26
1980 1808 26
1981 1808 26
1982 1808 40
1983 1808 40
1992 1808 26
1993 1808 26
1999 1808 40
2000 1808 40
1810 1809 40
1811 1809 40
1815 1809 40
1816 1809 40
1817 1809 40
1818 1809 40
1819 1809 40
1820 1809 61
1821 1809 61
1825 1809 61
1826 1809 61
1827 1809 40
1828 1809 40
1935 1809 26
1936 1809 26
1937 1809 26
1942 1809 26
1943 1809 26
1953 1809 26
1954 1809 26
1961 1809 26
1962 1809 26
1971 1809 40
1972 1809 40
1973 1809 40
1979 1809 26
1980 1809 26
1981 1809 26
1982 1809 40
1983 1809 40
1992 1809 26
1993 1809 26
1999 1809 40
2000 1809 40
1811 1810 40
1815 1810 40
1816 1810 40
1820 1810 40
1821 1810 40
1825 1810 40
1826 1810 40
1942 1810 26
1943 1810 26
1961 1810 26
1962 1810 26
1971 1810 26
1972 1810 26
1973 1810 26
1979 1810 26
1980 1810 26
1981 1810 26
1982 1810 26
1983 1810 26
1999 1810 26
2000 1810 26
1815 1811 40
1816 1811 40
1820 1811 40
1821 1811 40
1825 1811 40
1826 1811 40
1942 1811 26
1943 1811 26
1961 1811 26
1962 1811 26
1971 1811 26
1972 1811 26
1973 1811 26
1979 1811 26
1980 1811 26
1981 1811 26
1982 1811 26
1983 1811 26
1999 1811 26
2000 1811 26
1816 1815 40
1820 1815 40
1821 1815 40
1825 1815 40
1826 1815 40
1942 1815 26
1943 1815 26
1961 1815 26
1962 1815 26
1971 1815 26
1972 1815 26
1973 1815 26
1979 1815 26
1980 1815 26
1981 1815 26
1982 1815 26
1983 1815 26
1999 1815 26
2000 1815 26
1820 1816 40
1821 1816 40
1825 1816 40
1826 1816 40
1942 1816 26
1943 1816 26
1961 1816 26
1962 1816 26
1971 1816 26
1972 1816 26
1973 1816 26
1979 1816 26
1980 1816 26
1981 1816 26
1982 1816 26
1983 1816 26
1999 1816 26
2000 1816 26
1818 1817 61
1819 1817 61
1820 1817 40
1821 1817 40
1825 1817 40
1826 1817 40
1827 1817 61
1828 1817 61
1935 1817 40
1936 1817 40
1937 1817 40
1953 1817 40
1954 1817 40
1971 1817 26
1972 1817 26
1973 1817 26
1982 1817 26
1983 1817 26
1992 1817 40
1993 1817 40
1999 1817 26
2000 1817 26
1819 1818 61
1820 1818 40
1821 1818 40
1825 1818 40
1826 1818 40
1827 1818 61
1828 1818 61
1935 1818 40
1936 1818 40
1937 1818 40
1953 1818 40
1954 1818 40
1971 1818 26
1972 1818 26
1973 1818 26
1982 1818 26
1983 1818 26
1992 1818 40
1993 1818 40
1999 1818 26
2000 1818 26
1820 1819 40
1821 1819 40
1825 1819 40
1826 1819 40
1827 1819 61
1828 1819 61
1935 1819 40
1936 1819 40
1937 1819 40
1953 1819 40
1954 1819 40
1971 1819 26
1972 1819 26
1973 1819 26
1982 1819 26
1983 1819 26
1992 1819 40
1993 1819 40
1999 1819 26
2000 1819 26
1821 1820 61
1825 1820 61
1826 1820 61
1827 1820 40
1828 1820 40
1935 1820 26
1936 1820 26
1937 1820 26
1942 1820 26
1943 1820 26
1953 1820 26
1954 1820 26
1961 1820 26
1962 1820 26
1971 1820 40
1972 1820 40
1973 1820 40
1979 1820 26
1980 1820 26
1981 1820 26
1982 1820 40
1983 1820 40
1992 1820 26
1993 1820 26
1999 1820 40
2000 1820 40
1825 1821 61
1826 1821 61
1827 1821 40
1828 1821 40
1935 1821 26
1936 1821 26
1937 1821 26
1942 1821 26
1943 1821 26
1953 1821 26
1954 1821 26
1961 1821 26
1962 1821 26
1971 1821 40
1972 1821 40
1973 1821 40
1979 1821 26
1980 1821 26
1981 1821 26
1982 1821 40
1983 1821 40
1992 1821 26
1993 1821 26
1999 1821 40
2000 1821 40
1826 1825 61
1827 1825 40
1828 1825 40
1935 1825 26
1936 1825 26
1937 1825 26
1942 1825 26
1943 1825 26
1953 1825 26
1954 1825 26
1961 1825 26
1962 1825 26
1971 1825 40
1972 1825 40
1973 1825 40
1979 1825 26
1980 1825 26
1981 1825 26
1982 1825 40
1983 1825 40
1992 1825 26
1993 1825 26
1999 1825 40
2000 1825 40
1827 1826 40
1828 1826 40
1935 1826 26
1936 1826 26
1937 1826 26
1942 1826 26
1943 1826 26
1953 1826 26
1954 1826 26
1961 1826 26
1962 1826 26
1971 1826 40
1972 1826 40
1973 1826 40
1979 1826 26
1980 1826 26
1981 1826 26
1982 1826 40
1983 1826 40
1992 1826 26
1993 1826 26
1999 1826 40
2000 1826 40
1828 1827 61
1935 1827 40
1936 1827 40
1937 1827 40
1953 1827 40
1954 1827 40
1971 1827 26
1972 1827 26
1973 1827 26
1982 1827 26
1983 1827 26
1992 1827 40
1993 1827 40
1999 1827 26
2000 1827 26
1935 1828 40
1936 1828 40
1937 1828 40
1953 1828 40
1954 1828 40
1971 1828 26
1972 1828 26
1973 1828 26
1982 1828 26
1983 1828 26
1992 1828 40
1993 1828 40
1999 1828 26
2000 1828 26
1833 1832 37
1841 1832 37
1842 1832 37
1843 1832 37
1848 1832 37
1849 1832 37
1879 1832 37
1880 1832 37
1881 1832 37
1900 1832 37
1901 1832 37
1902 1832 37
1841 1833 37
1842 1833 37
1843 1833 37
1848 1833 37
1849 1833 37
1879 1833 37
1880 1833 37
1881 1833 37
1900 1833 37
1901 1833 37
1902 1833 37
1835 1834 58
1841 1834 38
1842 1834 38
1848 1834 38
1849 1834 38
1853 1834 58
1854 1834 58
1866 1834 37
1867 1834 37
1868 1834 37
1876 1834 58
1877 1834 58
1878 1834 58
1879 1834 38
1880 1834 38
1881 1834 36
1897 1834 37
1898 1834 37
1899 1834 37
1841 1835 38
1842 1835 38
1848 1835 38
1849 1835 38
1853 1835 58
1854 1835 58
1866 1835 37
1867 1835 37
1868 1835 37
1876 1835 58
1877 1835 58
1878 1835 58
1879 1835 38
1880 1835 38
1881 1835 36
1897 1835 37
1898 1835 37
1899 1835 37
1840 1839 38
1841 1839 38
1842 1839 38
1848 1839 38
1849 1839 38
1855 1839 38
1856 1839 38
1873 1839 38
1874 1839 38
1875 1839 38
1879 1839 38
1880 1839 38
1881 1839 36
1841 1840 38
1842 1840 38
1848 1840 38
1849 1840 38
1855 1840 38
1856 1840 38
1873 1840 38
1874 1840 38
1875 1840 38
1879 1840 38
1880 1840 38
1881 1840 36
1842 1841 58
1843 1841 37
1848 1841 58
1849 1841 58
1853 1841 38
1854 1841 38
1855 1841 38
1856 1841 38
1873 1841 38
1874 1841 38
1875 1841 38
1876 1841 38
1877 1841 38
1878 1841 38
1879 1841 58
1880 1841 58
1881 1841 56
1900 1841 37
1901 1841 37
1902 1841 37
1843 1842 37
1848 1842 58
1849 1842 58
1853 1842 38
1854 1842 38
1855 1842 38
1856 1842 38
1873 1842 38
1874 1842 38
1875 1842 38
1876 1842 38
1877 1842 38
1878 1842 38
1879 1842 58
1880 1842 58
1881 1842 56
1900 1842 37
1901 1842 37
1902 1842 37
1848 1843 37
1849 1843 37
1879 1843 37
1880 1843 37
1881 1843 37
1900 1843 37
1901 1843 37
1902 1843 37
1849 1848 58
1853 1848 38
1854 1848 38
1855 1848 38
1856 1848 38
1873 1848 38
1874 1848 38
1875 1848 38
1876 1848 38
1877 1848 38
1878 1848 38
1879 1848 58
1880 1848 58
1881 1848 56
1900 1848 37
1901 1848 37
1902 1848 37
1853 1849 38
1854 1849 38
1855 1849 38
1856 1849 38
1873 1849 38
1874 1849 38
1875 1849 38
1876 1849 38
1877 1849 38
1878 1849 38
1879 1849 58
1880 1849 58
1881 1849 56
1900 1849 37
1901 1849 37
1902 1849 37
1854 1853 58
1866 1853 37
1867 1853 37
1868 1853 37
1876 1853 58
1877 1853 58
1878 1853 58
1879 1853 38
1880 1853 38
1881 1853 36
1897 1853 37
1898 1853 37
1899 1853 37
1866 1854 37
1867 1854 37
1868 1854 37
1876 1854 58
1877 1854 58
1878 1854 58
1879 1854 38
1880 1854 38
1881 1854 36
1897 1854 37
1898 1854 37
1899 1854 37
1856 1855 38
1873 1855 38
1874 1855 38
1875 1855 38
1879 1855 38
1880 1855 38
1881 1855 36
1873 1856 38
1874 1856 38
1875 1856 38
1879 1856 38
1880 1856 38
1881 1856 36
1867 1866 37
1868 1866 37
1876 1866 37
1877 1866 37
1878 1866 37
1897 1866 37
1898 1866 37
1899 1866 37
1868 1867 37
1876 1867 37
1877 1867 37
1878 1867 37
1897 1867 37
1898 1867 37
1899 1867 37
1876 1868 37
1877 1868 37
1878 1868 37
1897 1868 37
1898 1868 37
1899 1868 37
1874 1873 38
1875 1873 38
1879 1873 38
1880 1873 38
1881 1873 36
1875 1874 38
1879 1874 38
1880 1874 38
1881 1874 36
1879 1875 38
1880 1875 38
1881 1875 36
1877 1876 58
1878 1876 58
1879 1876 38
1880 1876 38
1881 1876 36
1897 1876 37
1898 1876 37
1899 1876 37
1878 1877 58
1879 1877 38
1880 1877 38
1881 1877 36
1897 1877 37
1898 1877 37
1899 1877 37
1879 1878 38
1880 1878 38
1881 1878 36
1897 1878 37
1898 1878 37
1899 1878 37
1880 1879 58
1881 1879 56
1900 1879 37
1901 1879 37
1902 1879 37
1881 1880 56
1900 1880 37
1901 1880 37
1902 1880 37
1900 1881 37
1901 1881 37
1902 1881 37
1898 1897 37
1899 1897 37
1899 1898 37
1901 1900 37
1902 1900 37
1902 1901 37
1934 1933 37
1963 1933 37
1968 1933 37
1969 1933 37
1970 1933 37
1971 1933 37
1972 1933 37
1973 1933 37
1982 1933 37
1983 1933 37
1999 1933 37
2000 1933 37
1963 1934 37
1968 1934 37
1969 1934 37
1970 1934 37
1971 1934 37
1972 1934 37
1973 1934 37
1982 1934 37
1983 1934 37
1999 1934 37
2000 1934 37
1936 1935 58
1937 1935 58
1953 1935 58
1954 1935 58
1971 1935 38
1972 1935 38
1973 1935 38
1974 1935 37
1982 1935 38
1983 1935 38
1992 1935 58
1993 1935 58
1994 1935 37
1995 1935 37
1996 1935 37
1997 1935 37
1998 1935 37
1999 1935 38
2000 1935 38
1937 1936 58
1953 1936 58
1954 1936 58
1971 1936 38
1972 1936 38
1973 1936 38
1974 1936 37
1982 1936 38
1983 1936 38
1992 1936 58
1993 1936 58
1994 1936 37
1995 1936 37
1996 1936 37
1997 1936 37
1998 1936 37
1999 1936 38
2000 1936 38
1953 1937 58
1954 1937 58
1971 1937 38
1972 1937 38
1973 1937 38
1974 1937 37
1982 1937 38
1983 1937 38
1992 1937 58
1993 1937 58
1994 1937 37
1995 1937 37
1996 1937 37
1997 1937 37
1998 1937 37
1999 1937 38
2000 1937 38
1943 1942 38
1961 1942 38
1962 1942 38
1971 1942 38
1972 1942 38
1973 1942 38
1979 1942 38
1980 1942 38
1981 1942 38
1982 1942 38
1983 1942 38
1999 1942 38
2000 1942 38
1961 1943 38
1962 1943 38
1971 1943 38
1972 1943 38
1973 1943 38
1979 1943 38
1980 1943 38
1981 1943 38
1982 1943 38
1983 1943 38
1999 1943 38
2000 1943 38
1954 1953 58
1971 1953 38
1972 1953 38
1973 1953 38
1974 1953 37
1982 1953 38
1983 1953 38
1992 1953 58
1993 1953 58
1994 1953 37
1995 1953 37
1996 1953 37
1997 1953 37
1998 1953 37
1999 1953 38
2000 1953 38
1971 1954 38
1972 1954 38
1973 1954 38
1974 1954 37
1982 1954 38
1983 1954 38
1992 1954 58
1993 1954 58
1994 1954 37
1995 1954 37
1996 1954 37
1997 1954 37
1998 1954 37
1999 1954 38
2000 1954 38
1962 1961 38
1971 1961 38
1972 1961 38
1973 1961 38
1979 1961 38
1980 1961 38
1981 1961 38
1982 1961 38
1983 1961 38
1999 1961 38
2000 1961 38
1971 1962 38
1972 1962 38
1973 1962 38
1979 1962 38
1980 1962 38
1981 1962 38
1982 1962 38
1983 1962 38
1999 1962 38
2000 1962 38
1968 1963 37
1969 1963 37
1970 1963 37
1971 1963 37
1972 1963 37
1973 1963 37
1982 1963 37
1983 1963 37
1999 1963 37
2000 1963 37
1969 1968 37
1970 1968 37
1971 1968 37
1972 1968 37
1973 1968 37
1982 1968 37
1983 1968 37
1999 1968 37
2000 1968 37
1970 1969 37
1971 1969 37
1972 1969 37
1973 1969 37
1982 1969 37
1983 1969 37
1999 1969 37
2000 1969 37
1971 1970 37
1972 1970 37
1973 1970 37
1982 1970 37
1983 1970 37
1999 1970 37
2000 1970 37
1972 1971 58
1973 1971 58
1979 1971 38
1980 1971 38
1981 1971 38
1982 1971 58
1983 1971 58
1992 1971 38
1993 1971 38
1999 1971 58
2000 1971 58
1973 1972 58
1979 1972 38
1980 1972 38
1981 1972 38
1982 1972 58
1983 1972 58
1992 1972 38
1993 1972 38
1999 1972 58
2000 1972 58
1979 1973 38
1980 1973 38
1981 1973 38
1982 1973 58
1983 1973 58
1992 1973 38
1993 1973 38
1999 1973 58
2000 1973 58
1992 1974 37
1993 1974 37
1994 1974 37
1995 1974 37
1996 1974 37
1997 1974 37
1998 1974 37
1980 1979 38
1981 1979 38
1982 1979 38
1983 1979 38
1999 1979 38
2000 1979 38
1981 1980 38
1982 1980 38
1983 1980 38
1999 1980 38
2000 1980 38
1982 1981 38
1983 1981 38
1999 1981 38
2000 1981 38
1983 1982 58
1992 1982 38
1993 1982 38
1999 1982 58
2000 1982 58
1992 1983 38
1993 1983 38
1999 1983 58
2000 1983 58
1993 1992 58
1994 1992 37
1995 1992 37
1996 1992 37
1997 1992 37
1998 1992 37
1999 1992 38
2000 1992 38
1994 1993 37
1995 1993 37
1996 1993 37
1997 1993 37
1998 1993 37
1999 1993 38
2000 1993 38
1995 1994 37
1996 1994 37
1997 1994 37
1998 1994 37
1996 1995 37
1997 1995 37
1998 1995 37
1997 1996 37
1998 1996 37
1998 1997 37
2000 1999 58
