%%MatrixMarket matrix coordinate integer symmetric
%%GraphBLAS type uint32_t
2003 2003 1834
935 934 40
936 934 40
937 934 40
938 934 40
939 934 40
940 934 40
1032 934 40
1033 934 40
1034 934 40
1035 934 40
1039 934 40
1040 934 40
1041 934 40
936 935 40
937 935 40
938 935 40
939 935 40
940 935 40
1032 935 40
1033 935 40
1034 935 40
1035 935 40
1039 935 40
1040 935 40
1041 935 40
937 936 40
938 936 40
939 936 40
940 936 40
1032 936 40
1033 936 40
1034 936 40
1035 936 40
1039 936 40
1040 936 40
1041 936 40
938 937 40
939 937 40
940 937 40
1032 937 40
1033 937 40
1034 937 40
1035 937 40
1039 937 40
1040 937 40
1041 937 40
939 938 40
940 938 40
1032 938 40
1033 938 40
1034 938 40
1035 938 40
1039 938 40
1040 938 40
1041 938 40
940 939 40
1032 939 40
1033 939 40
1034 939 40
1035 939 40
1039 939 40
1040 939 40
1041 939 40
1032 940 40
1033 940 40
1034 940 40
1035 940 40
1039 940 40
1040 940 40
1041 940 40
945 944 40
950 944 40
951 944 40
952 944 40
953 944 40
954 944 40
1079 944 40
1080 944 40
1081 944 40
1082 944 40
1083 944 40
1084 944 40
1085 944 40
950 945 40
951 945 40
952 945 40
953 945 40
954 945 40
1079 945 40
1080 945 40
1081 945 40
1082 945 40
1083 945 40
1084 945 40
1085 945 40
951 950 40
952 950 40
953 950 40
954 950 40
1079 950 40
1080 950 40
1081 950 40
1082 950 40
1083 950 40
1084 950 40
1085 950 40
952 951 40
953 951 40
954 951 40
1079 951 40
1080 951 40
1081 951 40
1082 951 40
1083 951 40
1084 951 40
1085 951 40
953 952 40
954 952 40
1079 952 40
1080 952 40
1081 952 40
1082 952 40
1083 952 40
1084 952 40
1085 952 40
954 953 40
1079 953 40
1080 953 40
1081 953 40
1082 953 40
1083 953 40
1084 953 40
1085 953 40
1079 954 40
1080 954 40
1081 954 40
1082 954 40
1083 954 40
1084 954 40
1085 954 40
1007 1006 40
1010 1006 40
1011 1006 40
1012 1006 40
1026 1006 40
1027 1006 40
1032 1006 40
1033 1006 40
1034 1006 40
1035 1006 40
1039 1006 40
1040 1006 40
1041 1006 40
1010 1007 40
1011 1007 40
1012 1007 40
1026 1007 40
1027 1007 40
1032 1007 40
1033 1007 40
1034 1007 40
1035 1007 40
1039 1007 40
1040 1007 40
1041 1007 40
1011 1010 40
1012 1010 40
1026 1010 40
1027 1010 40
1032 1010 40
1033 1010 40
1034 1010 40
1035 1010 40
1039 1010 40
1040 1010 40
1041 1010 40
1012 1011 40
1026 1011 40
1027 1011 40
1032 1011 40
1033 1011 40
1034 1011 40
1035 1011 40
1039 1011 40
1040 1011 40
1041 1011 40
1026 1012 40
1027 1012 40
1032 1012 40
1033 1012 40
1034 1012 40
1035 1012 40
1039 1012 40
1040 1012 40
1041 1012 40
1027 1026 40
1032 1026 40
1033 1026 40
1034 1026 40
1035 1026 40
1039 1026 40
1040 1026 40
1041 1026 40
1032 1027 40
1033 1027 40
1034 1027 40
1035 1027 40
1039 1027 40
1040 1027 40
1041 1027 40
1033 1032 61
1034 1032 61
1035 1032 61
1039 1032 61
1040 1032 61
1041 1032 61
1048 1032 40
1049 1032 40
1050 1032 40
1051 1032 40
1052 1032 40
1053 1032 40
1054 1032 40
1159 1032 40
1160 1032 40
1161 1032 40
1162 1032 40
1163 1032 40
1164 1032 40
1165 1032 40
1034 1033 61
1035 1033 61
1039 1033 61
1040 1033 61
1041 1033 61
1048 1033 40
1049 1033 40
1050 1033 40
1051 1033 40
1052 1033 40
1053 1033 40
1054 1033 40
1159 1033 40
1160 1033 40
1161 1033 40
1162 1033 40
1163 1033 40
1164 1033 40
1165 1033 40
1035 1034 61
1039 1034 61
1040 1034 61
1041 1034 61
1048 1034 40
1049 1034 40
1050 1034 40
1051 1034 40
1052 1034 40
1053 1034 40
1054 1034 40
1159 1034 40
1160 1034 40
1161 1034 40
1162 1034 40
1163 1034 40
1164 1034 40
1165 1034 40
1039 1035 61
1040 1035 61
1041 1035 61
1048 1035 40
1049 1035 40
1050 1035 40
1051 1035 40
1052 1035 40
1053 1035 40
1054 1035 40
1159 1035 40
1160 1035 40
1161 1035 40
1162 1035 40
1163 1035 40
1164 1035 40
1165 1035 40
1040 1039 61
1041 1039 61
1048 1039 40
1049 1039 40
1050 1039 40
1051 1039 40
1052 1039 40
1053 1039 40
1054 1039 40
1159 1039 40
1160 1039 40
1161 1039 40
1162 1039 40
1163 1039 40
1164 1039 40
1165 1039 40
1041 1040 61
1048 1040 40
1049 1040 40
1050 1040 40
1051 1040 40
1052 1040 40
1053 1040 40
1054 1040 40
1159 1040 40
1160 1040 40
1161 1040 40
1162 1040 40
1163 1040 40
1164 1040 40
1165 1040 40
1048 1041 40
1049 1041 40
1050 1041 40
1051 1041 40
1052 1041 40
1053 1041 40
1054 1041 40
1159 1041 40
1160 1041 40
1161 1041 40
1162 1041 40
1163 1041 40
1164 1041 40
1165 1041 40
1049 1048 40
1050 1048 40
1051 1048 40
1052 1048 40
1053 1048 40
1054 1048 40
1050 1049 40
1051 1049 40
1052 1049 40
1053 1049 40
1054 1049 40
1051 1050 40
1052 1050 40
1053 1050 40
1054 1050 40
1052 1051 40
1053 1051 40
1054 1051 40
1053 1052 40
1054 1052 40
1054 1053 40
1080 1079 54
1081 1079 54
1082 1079 54
1083 1079 54
1084 1079 54
1085 1079 54
1089 1079 40
1090 1079 40
1091 1079 40
1095 1079 40
1096 1079 40
1103 1079 40
1104 1079 40
1081 1080 54
1082 1080 54
1083 1080 54
1084 1080 54
1085 1080 54
1089 1080 40
1090 1080 40
1091 1080 40
1095 1080 40
1096 1080 40
1103 1080 40
1104 1080 40
1082 1081 54
1083 1081 54
1084 1081 54
1085 1081 54
1089 1081 40
1090 1081 40
1091 1081 40
1095 1081 40
1096 1081 40
1103 1081 40
1104 1081 40
1083 1082 54
1084 1082 54
1085 1082 54
1089 1082 40
1090 1082 40
1091 1082 40
1095 1082 40
1096 1082 40
1103 1082 40
1104 1082 40
1084 1083 54
1085 1083 54
1089 1083 40
1090 1083 40
1091 1083 40
1095 1083 40
1096 1083 40
1103 1083 40
1104 1083 40
1085 1084 54
1089 1084 40
1090 1084 40
1091 1084 40
1095 1084 40
1096 1084 40
1103 1084 40
1104 1084 40
1089 1085 40
1090 1085 40
1091 1085 40
1095 1085 40
1096 1085 40
1103 1085 40
1104 1085 40
1090 1089 40
1091 1089 40
1095 1089 40
1096 1089 40
1103 1089 40
1104 1089 40
1091 1090 40
1095 1090 40
1096 1090 40
1103 1090 40
1104 1090 40
1095 1091 40
1096 1091 40
1103 1091 40
1104 1091 40
1096 1095 40
1103 1095 40
1104 1095 40
1103 1096 40
1104 1096 40
1104 1103 40
1149 1148 40
1150 1148 40
1151 1148 40
1152 1148 40
1153 1148 40
1154 1148 40
1159 1148 40
1160 1148 40
1161 1148 40
1162 1148 40
1163 1148 40
1164 1148 40
1165 1148 40
1150 1149 40
1151 1149 40
1152 1149 40
1153 1149 40
1154 1149 40
1159 1149 40
1160 1149 40
1161 1149 40
1162 1149 40
1163 1149 40
1164 1149 40
1165 1149 40
1151 1150 40
1152 1150 40
1153 1150 40
1154 1150 40
1159 1150 40
1160 1150 40
1161 1150 40
1162 1150 40
1163 1150 40
1164 1150 40
1165 1150 40
1152 1151 40
1153 1151 40
1154 1151 40
1159 1151 40
1160 1151 40
1161 1151 40
1162 1151 40
1163 1151 40
1164 1151 40
1165 1151 40
1153 1152 40
1154 1152 40
1159 1152 40
1160 1152 40
1161 1152 40
1162 1152 40
1163 1152 40
1164 1152 40
1165 1152 40
1154 1153 40
1159 1153 40
1160 1153 40
1161 1153 40
1162 1153 40
1163 1153 40
1164 1153 40
1165 1153 40
1159 1154 40
1160 1154 40
1161 1154 40
1162 1154 40
1163 1154 40
1164 1154 40
1165 1154 40
1160 1159 61
1161 1159 61
1162 1159 61
1163 1159 61
1164 1159 61
1165 1159 61
1170 1159 40
1171 1159 40
1172 1159 40
1173 1159 40
1174 1159 40
1175 1159 40
1176 1159 40
1323 1159 40
1324 1159 40
1325 1159 40
1326 1159 40
1344 1159 40
1345 1159 40
1346 1159 40
1161 1160 61
1162 1160 61
1163 1160 61
1164 1160 61
1165 1160 61
1170 1160 40
1171 1160 40
1172 1160 40
1173 1160 40
1174 1160 40
1175 1160 40
1176 1160 40
1323 1160 40
1324 1160 40
1325 1160 40
1326 1160 40
1344 1160 40
1345 1160 40
1346 1160 40
1162 1161 61
1163 1161 61
1164 1161 61
1165 1161 61
1170 1161 40
1171 1161 40
1172 1161 40
1173 1161 40
1174 1161 40
1175 1161 40
1176 1161 40
1323 1161 40
1324 1161 40
1325 1161 40
1326 1161 40
1344 1161 40
1345 1161 40
1346 1161 40
1163 1162 61
1164 1162 61
1165 1162 61
1170 1162 40
1171 1162 40
1172 1162 40
1173 1162 40
1174 1162 40
1175 1162 40
1176 1162 40
1323 1162 40
1324 1162 40
1325 1162 40
1326 1162 40
1344 1162 40
1345 1162 40
1346 1162 40
1164 1163 61
1165 1163 61
1170 1163 40
1171 1163 40
1172 1163 40
1173 1163 40
1174 1163 40
1175 1163 40
1176 1163 40
1323 1163 40
1324 1163 40
1325 1163 40
1326 1163 40
1344 1163 40
1345 1163 40
1346 1163 40
1165 1164 61
1170 1164 40
1171 1164 40
1172 1164 40
1173 1164 40
1174 1164 40
1175 1164 40
1176 1164 40
1323 1164 40
1324 1164 40
1325 1164 40
1326 1164 40
1344 1164 40
1345 1164 40
1346 1164 40
1170 1165 40
1171 1165 40
1172 1165 40
1173 1165 40
1174 1165 40
1175 1165 40
1176 1165 40
1323 1165 40
1324 1165 40
1325 1165 40
1326 1165 40
1344 1165 40
1345 1165 40
1346 1165 40
1171 1170 40
1172 1170 40
1173 1170 40
1174 1170 40
1175 1170 40
1176 1170 40
1172 1171 40
1173 1171 40
1174 1171 40
1175 1171 40
1176 1171 40
1173 1172 40
1174 1172 40
1175 1172 40
1176 1172 40
1174 1173 40
1175 1173 40
1176 1173 40
1175 1174 40
1176 1174 40
1176 1175 40
1301 1300 40
1302 1300 40
1303 1300 40
1307 1300 40
1308 1300 40
1309 1300 40
1323 1300 40
1324 1300 40
1325 1300 40
1326 1300 40
1344 1300 40
1345 1300 40
1346 1300 40
1302 1301 40
1303 1301 40
1307 1301 40
1308 1301 40
1309 1301 40
1323 1301 40
1324 1301 40
1325 1301 40
1326 1301 40
1344 1301 40
1345 1301 40
1346 1301 40
1303 1302 40
1307 1302 40
1308 1302 40
1309 1302 40
1323 1302 40
1324 1302 40
1325 1302 40
1326 1302 40
1344 1302 40
1345 1302 40
1346 1302 40
1307 1303 40
1308 1303 40
1309 1303 40
1323 1303 40
1324 1303 40
1325 1303 40
1326 1303 40
1344 1303 40
1345 1303 40
1346 1303 40
1308 1307 40
1309 1307 40
1323 1307 40
1324 1307 40
1325 1307 40
1326 1307 40
1344 1307 40
1345 1307 40
1346 1307 40
1309 1308 40
1323 1308 40
1324 1308 40
1325 1308 40
1326 1308 40
1344 1308 40
1345 1308 40
1346 1308 40
1323 1309 40
1324 1309 40
1325 1309 40
1326 1309 40
1344 1309 40
1345 1309 40
1346 1309 40
1324 1323 61
1325 1323 61
1326 1323 61
1330 1323 40
1331 1323 40
1332 1323 40
1333 1323 40
1344 1323 61
1345 1323 61
1346 1323 61
1347 1323 40
1348 1323 40
1349 1323 40
1470 1323 40
1471 1323 40
1472 1323 40
1473 1323 40
1474 1323 40
1479 1323 40
1480 1323 40
1325 1324 61
1326 1324 61
1330 1324 40
1331 1324 40
1332 1324 40
1333 1324 40
1344 1324 61
1345 1324 61
1346 1324 61
1347 1324 40
1348 1324 40
1349 1324 40
1470 1324 40
1471 1324 40
1472 1324 40
1473 1324 40
1474 1324 40
1479 1324 40
1480 1324 40
1326 1325 61
1330 1325 40
1331 1325 40
1332 1325 40
1333 1325 40
1344 1325 61
1345 1325 61
1346 1325 61
1347 1325 40
1348 1325 40
1349 1325 40
1470 1325 40
1471 1325 40
1472 1325 40
1473 1325 40
1474 1325 40
1479 1325 40
1480 1325 40
1330 1326 40
1331 1326 40
1332 1326 40
1333 1326 40
1344 1326 61
1345 1326 61
1346 1326 61
1347 1326 40
1348 1326 40
1349 1326 40
1470 1326 40
1471 1326 40
1472 1326 40
1473 1326 40
1474 1326 40
1479 1326 40
1480 1326 40
1331 1330 40
1332 1330 40
1333 1330 40
1344 1330 40
1345 1330 40
1346 1330 40
1347 1330 40
1348 1330 40
1349 1330 40
1332 1331 40
1333 1331 40
1344 1331 40
1345 1331 40
1346 1331 40
1347 1331 40
1348 1331 40
1349 1331 40
1333 1332 40
1344 1332 40
1345 1332 40
1346 1332 40
1347 1332 40
1348 1332 40
1349 1332 40
1344 1333 40
1345 1333 40
1346 1333 40
1347 1333 40
1348 1333 40
1349 1333 40
1345 1344 61
1346 1344 61
1347 1344 40
1348 1344 40
1349 1344 40
1470 1344 40
1471 1344 40
1472 1344 40
1473 1344 40
1474 1344 40
1479 1344 40
1480 1344 40
1346 1345 61
1347 1345 40
1348 1345 40
1349 1345 40
1470 1345 40
1471 1345 40
1472 1345 40
1473 1345 40
1474 1345 40
1479 1345 40
1480 1345 40
1347 1346 40
1348 1346 40
1349 1346 40
1470 1346 40
1471 1346 40
1472 1346 40
1473 1346 40
1474 1346 40
1479 1346 40
1480 1346 40
1348 1347 40
1349 1347 40
1349 1348 40
1443 1442 40
1444 1442 40
1445 1442 40
1450 1442 40
1451 1442 40
1452 1442 40
1481 1442 40
1482 1442 40
1487 1442 40
1488 1442 40
1489 1442 40
1490 1442 40
1491 1442 40
1444 1443 40
1445 1443 40
1450 1443 40
1451 1443 40
1452 1443 40
1481 1443 40
1482 1443 40
1487 1443 40
1488 1443 40
1489 1443 40
1490 1443 40
1491 1443 40
1445 1444 40
1450 1444 40
1451 1444 40
1452 1444 40
1481 1444 40
1482 1444 40
1487 1444 40
1488 1444 40
1489 1444 40
1490 1444 40
1491 1444 40
1450 1445 40
1451 1445 40
1452 1445 40
1481 1445 40
1482 1445 40
1487 1445 40
1488 1445 40
1489 1445 40
1490 1445 40
1491 1445 40
1451 1450 40
1452 1450 40
1481 1450 40
1482 1450 40
1487 1450 40
1488 1450 40
1489 1450 40
1490 1450 40
1491 1450 40
1452 1451 40
1481 1451 40
1482 1451 40
1487 1451 40
1488 1451 40
1489 1451 40
1490 1451 40
1491 1451 40
1481 1452 40
1482 1452 40
1487 1452 40
1488 1452 40
1489 1452 40
1490 1452 40
1491 1452 40
1457 1456 40
1462 1456 40
1463 1456 40
1464 1456 40
1465 1456 40
1466 1456 40
1470 1456 40
1471 1456 40
1472 1456 40
1473 1456 40
1474 1456 40
1479 1456 40
1480 1456 40
1462 1457 40
1463 1457 40
1464 1457 40
1465 1457 40
1466 1457 40
1470 1457 40
1471 1457 40
1472 1457 40
1473 1457 40
1474 1457 40
1479 1457 40
1480 1457 40
1463 1462 40
1464 1462 40
1465 1462 40
1466 1462 40
1470 1462 40
1471 1462 40
1472 1462 40
1473 1462 40
1474 1462 40
1479 1462 40
1480 1462 40
1464 1463 40
1465 1463 40
1466 1463 40
1470 1463 40
1471 1463 40
1472 1463 40
1473 1463 40
1474 1463 40
1479 1463 40
1480 1463 40
1465 1464 40
1466 1464 40
1470 1464 40
1471 1464 40
1472 1464 40
1473 1464 40
1474 1464 40
1479 1464 40
1480 1464 40
1466 1465 40
1470 1465 40
1471 1465 40
1472 1465 40
1473 1465 40
1474 1465 40
1479 1465 40
1480 1465 40
1470 1466 40
1471 1466 40
1472 1466 40
1473 1466 40
1474 1466 40
1479 1466 40
1480 1466 40
1471 1470 61
1472 1470 61
1473 1470 61
1474 1470 61
1479 1470 61
1480 1470 61
1534 1470 40
1535 1470 40
1540 1470 40
1541 1470 40
1542 1470 40
1543 1470 40
1544 1470 40
1802 1470 40
1803 1470 40
1817 1470 40
1818 1470 40
1819 1470 40
1827 1470 40
1828 1470 40
1472 1471 61
1473 1471 61
1474 1471 61
1479 1471 61
1480 1471 61
1534 1471 40
1535 1471 40
1540 1471 40
1541 1471 40
1542 1471 40
1543 1471 40
1544 1471 40
1802 1471 40
1803 1471 40
1817 1471 40
1818 1471 40
1819 1471 40
1827 1471 40
1828 1471 40
1473 1472 61
1474 1472 61
1479 1472 61
1480 1472 61
1534 1472 40
1535 1472 40
1540 1472 40
1541 1472 40
1542 1472 40
1543 1472 40
1544 1472 40
1802 1472 40
1803 1472 40
1817 1472 40
1818 1472 40
1819 1472 40
1827 1472 40
1828 1472 40
1474 1473 61
1479 1473 61
1480 1473 61
1534 1473 40
1535 1473 40
1540 1473 40
1541 1473 40
1542 1473 40
1543 1473 40
1544 1473 40
1802 1473 40
1803 1473 40
1817 1473 40
1818 1473 40
1819 1473 40
1827 1473 40
1828 1473 40
1479 1474 61
1480 1474 61
1534 1474 40
1535 1474 40
1540 1474 40
1541 1474 40
1542 1474 40
1543 1474 40
1544 1474 40
1802 1474 40
1803 1474 40
1817 1474 40
1818 1474 40
1819 1474 40
1827 1474 40
1828 1474 40
1480 1479 61
1534 1479 40
1535 1479 40
1540 1479 40
1541 1479 40
1542 1479 40
1543 1479 40
1544 1479 40
1802 1479 40
1803 1479 40
1817 1479 40
1818 1479 40
1819 1479 40
1827 1479 40
1828 1479 40
1534 1480 40
1535 1480 40
1540 1480 40
1541 1480 40
1542 1480 40
1543 1480 40
1544 1480 40
1802 1480 40
1803 1480 40
1817 1480 40
1818 1480 40
1819 1480 40
1827 1480 40
1828 1480 40
1482 1481 54
1487 1481 54
1488 1481 54
1489 1481 54
1490 1481 54
1491 1481 54
1770 1481 40
1771 1481 40
1777 1481 40
1778 1481 40
1790 1481 40
1791 1481 40
1792 1481 40
1487 1482 54
1488 1482 54
1489 1482 54
1490 1482 54
1491 1482 54
1770 1482 40
1771 1482 40
1777 1482 40
1778 1482 40
1790 1482 40
1791 1482 40
1792 1482 40
1488 1487 54
1489 1487 54
1490 1487 54
1491 1487 54
1770 1487 40
1771 1487 40
1777 1487 40
1778 1487 40
1790 1487 40
1791 1487 40
1792 1487 40
1489 1488 54
1490 1488 54
1491 1488 54
1770 1488 40
1771 1488 40
1777 1488 40
1778 1488 40
1790 1488 40
1791 1488 40
1792 1488 40
1490 1489 54
1491 1489 54
1770 1489 40
1771 1489 40
1777 1489 40
1778 1489 40
1790 1489 40
1791 1489 40
1792 1489 40
1491 1490 54
1770 1490 40
1771 1490 40
1777 1490 40
1778 1490 40
1790 1490 40
1791 1490 40
1792 1490 40
1770 1491 40
1771 1491 40
1777 1491 40
1778 1491 40
1790 1491 40
1791 1491 40
1792 1491 40
1535 1534 40
1540 1534 40
1541 1534 40
1542 1534 40
1543 1534 40
1544 1534 40
1540 1535 40
1541 1535 40
1542 1535 40
1543 1535 40
1544 1535 40
1541 1540 40
1542 1540 40
1543 1540 40
1544 1540 40
1542 1541 40
1543 1541 40
1544 1541 40
1543 1542 40
1544 1542 40
1544 1543 40
1659 1658 40
1660 1658 40
1661 1658 40
1665 1658 40
1666 1658 40
1667 1658 40
1802 1658 40
1803 1658 40
1817 1658 40
1818 1658 40
1819 1658 40
1827 1658 40
1828 1658 40
1660 1659 40
1661 1659 40
1665 1659 40
1666 1659 40
1667 1659 40
1802 1659 40
1803 1659 40
1817 1659 40
1818 1659 40
1819 1659 40
1827 1659 40
1828 1659 40
1661 1660 40
1665 1660 40
1666 1660 40
1667 1660 40
1802 1660 40
1803 1660 40
1817 1660 40
1818 1660 40
1819 1660 40
1827 1660 40
1828 1660 40
1665 1661 40
1666 1661 40
1667 1661 40
1802 1661 40
1803 1661 40
1817 1661 40
1818 1661 40
1819 1661 40
1827 1661 40
1828 1661 40
1666 1665 40
1667 1665 40
1802 1665 40
1803 1665 40
1817 1665 40
1818 1665 40
1819 1665 40
1827 1665 40
1828 1665 40
1667 1666 40
1802 1666 40
1803 1666 40
1817 1666 40
1818 1666 40
1819 1666 40
1827 1666 40
1828 1666 40
1802 1667 40
1803 1667 40
1817 1667 40
1818 1667 40
1819 1667 40
1827 1667 40
1828 1667 40
1669 1668 40
1670 1668 40
1671 1668 40
1682 1668 40
1683 1668 40
1684 1668 40
1807 1668 40
1808 1668 40
1809 1668 40
1820 1668 40
1821 1668 40
1825 1668 40
1826 1668 40
1670 1669 40
1671 1669 40
1682 1669 40
1683 1669 40
1684 1669 40
1807 1669 40
1808 1669 40
1809 1669 40
1820 1669 40
1821 1669 40
1825 1669 40
1826 1669 40
1671 1670 40
1682 1670 40
1683 1670 40
1684 1670 40
1807 1670 40
1808 1670 40
1809 1670 40
1820 1670 40
1821 1670 40
1825 1670 40
1826 1670 40
1682 1671 40
1683 1671 40
1684 1671 40
1807 1671 40
1808 1671 40
1809 1671 40
1820 1671 40
1821 1671 40
1825 1671 40
1826 1671 40
1683 1682 40
1684 1682 40
1807 1682 40
1808 1682 40
1809 1682 40
1820 1682 40
1821 1682 40
1825 1682 40
1826 1682 40
1684 1683 40
1807 1683 40
1808 1683 40
1809 1683 40
1820 1683 40
1821 1683 40
1825 1683 40
1826 1683 40
1807 1684 40
1808 1684 40
1809 1684 40
1820 1684 40
1821 1684 40
1825 1684 40
1826 1684 40
1712 1711 40
1716 1711 40
1717 1711 40
1718 1711 40
1735 1711 40
1736 1711 40
1768 1711 40
1769 1711 40
1772 1711 40
1773 1711 40
1784 1711 40
1785 1711 40
1786 1711 40
1716 1712 40
1717 1712 40
1718 1712 40
1735 1712 40
1736 1712 40
1768 1712 40
1769 1712 40
1772 1712 40
1773 1712 40
1784 1712 40
1785 1712 40
1786 1712 40
1717 1716 40
1718 1716 40
1735 1716 40
1736 1716 40
1768 1716 40
1769 1716 40
1772 1716 40
1773 1716 40
1784 1716 40
1785 1716 40
1786 1716 40
1718 1717 40
1735 1717 40
1736 1717 40
1768 1717 40
1769 1717 40
1772 1717 40
1773 1717 40
1784 1717 40
1785 1717 40
1786 1717 40
1735 1718 40
1736 1718 40
1768 1718 40
1769 1718 40
1772 1718 40
1773 1718 40
1784 1718 40
1785 1718 40
1786 1718 40
1720 1719 40
1721 1719 40
1730 1719 40
1731 1719 40
1737 1719 40
1738 1719 40
1770 1719 40
1771 1719 40
1777 1719 40
1778 1719 40
1790 1719 40
1791 1719 40
1792 1719 40
1721 1720 40
1730 1720 40
1731 1720 40
1737 1720 40
1738 1720 40
1770 1720 40
1771 1720 40
1777 1720 40
1778 1720 40
1790 1720 40
1791 1720 40
1792 1720 40
1730 1721 40
1731 1721 40
1737 1721 40
1738 1721 40
1770 1721 40
1771 1721 40
1777 1721 40
1778 1721 40
1790 1721 40
1791 1721 40
1792 1721 40
1731 1730 40
1737 1730 40
1738 1730 40
1770 1730 40
1771 1730 40
1777 1730 40
1778 1730 40
1790 1730 40
1791 1730 40
1792 1730 40
1737 1731 40
1738 1731 40
1770 1731 40
1771 1731 40
1777 1731 40
1778 1731 40
1790 1731 40
1791 1731 40
1792 1731 40
1736 1735 40
1768 1735 40
1769 1735 40
1772 1735 40
1773 1735 40
1784 1735 40
1785 1735 40
1786 1735 40
1768 1736 40
1769 1736 40
1772 1736 40
1773 1736 40
1784 1736 40
1785 1736 40
1786 1736 40
1738 1737 40
1770 1737 40
1771 1737 40
1777 1737 40
1778 1737 40
1790 1737 40
1791 1737 40
1792 1737 40
1770 1738 40
1771 1738 40
1777 1738 40
1778 1738 40
1790 1738 40
1791 1738 40
1792 1738 40
1769 1768 40
1772 1768 40
1773 1768 40
1784 1768 40
1785 1768 40
1786 1768 40
1772 1769 40
1773 1769 40
1784 1769 40
1785 1769 40
1786 1769 40
1771 1770 54
1777 1770 54
1778 1770 54
1790 1770 54
1791 1770 54
1792 1770 54
1777 1771 54
1778 1771 54
1790 1771 54
1791 1771 54
1792 1771 54
1773 1772 40
1784 1772 40
1785 1772 40
1786 1772 40
1784 1773 40
1785 1773 40
1786 1773 40
1778 1777 54
1790 1777 54
1791 1777 54
1792 1777 54
1790 1778 54
1791 1778 54
1792 1778 54
1785 1784 40
1786 1784 40
1786 1785 40
1791 1790 54
1792 1790 54
1792 1791 54
1803 1802 61
1807 1802 40
1808 1802 40
1809 1802 40
1817 1802 61
1818 1802 61
1819 1802 61
1820 1802 40
1821 1802 40
1825 1802 40
1826 1802 40
1827 1802 61
1828 1802 61
1935 1802 40
1936 1802 40
1937 1802 40
1953 1802 40
1954 1802 40
1992 1802 40
1993 1802 40
1807 1803 40
1808 1803 40
1809 1803 40
1817 1803 61
1818 1803 61
1819 1803 61
1820 1803 40
1821 1803 40
1825 1803 40
1826 1803 40
1827 1803 61
1828 1803 61
1935 1803 40
1936 1803 40
1937 1803 40
1953 1803 40
1954 1803 40
1992 1803 40
1993 1803 40
1805 1804 40
1806 1804 40
1807 1804 40
1808 1804 40
1809 1804 40
1810 1804 40
1811 1804 40
1815 1804 40
1816 1804 40
1820 1804 40
1821 1804 40
1825 1804 40
1826 1804 40
1806 1805 40
1807 1805 40
1808 1805 40
1809 1805 40
1810 1805 40
1811 1805 40
1815 1805 40
1816 1805 40
1820 1805 40
1821 1805 40
1825 1805 40
1826 1805 40
1807 1806 40
1808 1806 40
1809 1806 40
1810 1806 40
1811 1806 40
1815 1806 40
1816 1806 40
1820 1806 40
1821 1806 40
1825 1806 40
1826 1806 40
1808 1807 61
1809 1807 61
1810 1807 40
1811 1807 40
1815 1807 40
1816 1807 40
1817 1807 40
1818 1807 40
1819 1807 40
1820 1807 61
1821 1807 61
1825 1807 61
1826 1807 61
1827 1807 40
1828 1807 40
1971 1807 40
1972 1807 40
1973 1807 40
1982 1807 40
1983 1807 40
1999 1807 40
2000 1807 40
1809 1808 61
1810 1808 40
1811 1808 40
1815 1808 40
1816 1808 40
1817 1808 40
1818 1808 40
1819 1808 40
1820 1808 61
1821 1808 61
1825 1808 61
1826 1808 61
1827 1808 40
1828 1808 40
1971 1808 40
1972 1808 40
1973 1808 40
1982 1808 40
1983 1808 40
1999 1808 40
2000 1808 40
1810 1809 40
1811 1809 40
1815 1809 40
1816 1809 40
1817 1809 40
1818 1809 40
1819 1809 40
1820 1809 61
1821 1809 61
1825 1809 61
1826 1809 61
1827 1809 40
1828 1809 40
1971 1809 40
1972 1809 40
1973 1809 40
1982 1809 40
1983 1809 40
1999 1809 40
2000 1809 40
1811 1810 40
1815 1810 40
1816 1810 40
1820 1810 40
1821 1810 40
1825 1810 40
1826 1810 40
1815 1811 40
1816 1811 40
1820 1811 40
1821 1811 40
1825 1811 40
1826 1811 40
1816 1815 40
1820 1815 40
1821 1815 40
1825 1815 40
1826 1815 40
1820 1816 40
1821 1816 40
1825 1816 40
1826 1816 40
1818 1817 61
1819 1817 61
1820 1817 40
1821 1817 40
1825 1817 40
1826 1817 40
1827 1817 61
1828 1817 61
1935 1817 40
1936 1817 40
1937 1817 40
1953 1817 40
1954 1817 40
1992 1817 40
1993 1817 40
1819 1818 61
1820 1818 40
1821 1818 40
1825 1818 40
1826 1818 40
1827 1818 61
1828 1818 61
1935 1818 40
1936 1818 40
1937 1818 40
1953 1818 40
1954 1818 40
1992 1818 40
1993 1818 40
1820 1819 40
1821 1819 40
1825 1819 40
1826 1819 40
1827 1819 61
1828 1819 61
1935 1819 40
1936 1819 40
1937 1819 40
1953 1819 40
1954 1819 40
1992 1819 40
1993 1819 40
1821 1820 61
1825 1820 61
1826 1820 61
1827 1820 40
1828 1820 40
1971 1820 40
1972 1820 40
1973 1820 40
1982 1820 40
1983 1820 40
1999 1820 40
2000 1820 40
1825 1821 61
1826 1821 61
1827 1821 40
1828 1821 40
1971 1821 40
1972 1821 40
1973 1821 40
1982 1821 40
1983 1821 40
1999 1821 40
2000 1821 40
1826 1825 61
1827 1825 40
1828 1825 40
1971 1825 40
1972 1825 40
1973 1825 40
1982 1825 40
1983 1825 40
1999 1825 40
2000 1825 40
1827 1826 40
1828 1826 40
1971 1826 40
1972 1826 40
1973 1826 40
1982 1826 40
1983 1826 40
1999 1826 40
2000 1826 40
1828 1827 61
1935 1827 40
1936 1827 40
1937 1827 40
1953 1827 40
1954 1827 40
1992 1827 40
1993 1827 40
1935 1828 40
1936 1828 40
1937 1828 40
1953 1828 40
1954 1828 40
1992 1828 40
1993 1828 40
1936 1935 40
1937 1935 40
1953 1935 40
1954 1935 40
1992 1935 40
1993 1935 40
1937 1936 40
1953 1936 40
1954 1936 40
1992 1936 40
1993 1936 40
1953 1937 40
1954 1937 40
1992 1937 40
1993 1937 40
1954 1953 40
1992 1953 40
1993 1953 40
1992 1954 40
1993 1954 40
1972 1971 40
1973 1971 40
1982 1971 40
1983 1971 40
1999 1971 40
2000 1971 40
1973 1972 40
1982 1972 40
1983 1972 40
1999 1972 40
2000 1972 40
1982 1973 40
1983 1973 40
1999 1973 40
2000 1973 40
1983 1982 40
1999 1982 40
2000 1982 40
1999 1983 40
2000 1983 40
1993 1992 40
2000 1999 40
