%%MatrixMarket matrix coordinate integer symmetric
%%GraphBLAS type uint32_t
2003 2003 17492
302 301 22
303 301 22
304 301 22
305 301 22
306 301 22
442 301 22
443 301 22
444 301 22
445 301 22
446 301 22
447 301 22
727 301 22
728 301 22
729 301 22
730 301 22
731 301 22
732 301 22
733 301 22
734 301 22
735 301 22
736 301 22
737 301 22
738 301 22
303 302 22
304 302 22
305 302 22
306 302 22
442 302 22
443 302 22
444 302 22
445 302 22
446 302 22
447 302 22
727 302 22
728 302 22
729 302 22
730 302 22
731 302 22
732 302 22
733 302 22
734 302 22
735 302 22
736 302 22
737 302 22
738 302 22
304 303 22
305 303 22
306 303 22
442 303 22
443 303 22
444 303 22
445 303 22
446 303 22
447 303 22
727 303 22
728 303 22
729 303 22
730 303 22
731 303 22
732 303 22
733 303 22
734 303 22
735 303 22
736 303 22
737 303 22
738 303 22
305 304 22
306 304 22
442 304 22
443 304 22
444 304 22
445 304 22
446 304 22
447 304 22
727 304 22
728 304 22
729 304 22
730 304 22
731 304 22
732 304 22
733 304 22
734 304 22
735 304 22
736 304 22
737 304 22
738 304 22
306 305 22
442 305 22
443 305 22
444 305 22
445 305 22
446 305 22
447 305 22
727 305 22
728 305 22
729 305 22
730 305 22
731 305 22
732 305 22
733 305 22
734 305 22
735 305 22
736 305 22
737 305 22
738 305 22
442 306 22
443 306 22
444 306 22
445 306 22
446 306 22
447 306 22
727 306 22
728 306 22
729 306 22
730 306 22
731 306 22
732 306 22
733 306 22
734 306 22
735 306 22
736 306 22
737 306 22
738 306 22
314 313 22
315 313 22
316 313 22
317 313 22
318 313 22
319 313 22
320 313 22
321 313 22
322 313 22
323 313 22
324 313 22
412 313 22
413 313 22
414 313 22
415 313 22
416 313 22
417 313 22
418 313 22
419 313 22
420 313 22
421 313 22
422 313 22
423 313 22
315 314 22
316 314 22
317 314 22
318 314 22
319 314 22
320 314 22
321 314 22
322 314 22
323 314 22
324 314 22
412 314 22
413 314 22
414 314 22
415 314 22
416 314 22
417 314 22
418 314 22
419 314 22
420 314 22
421 314 22
422 314 22
423 314 22
316 315 22
317 315 22
318 315 22
319 315 22
320 315 22
321 315 22
322 315 22
323 315 22
324 315 22
412 315 22
413 315 22
414 315 22
415 315 22
416 315 22
417 315 22
418 315 22
419 315 22
420 315 22
421 315 22
422 315 22
423 315 22
317 316 22
318 316 22
319 316 22
320 316 22
321 316 22
322 316 22
323 316 22
324 316 22
412 316 22
413 316 22
414 316 22
415 316 22
416 316 22
417 316 22
418 316 22
419 316 22
420 316 22
421 316 22
422 316 22
423 316 22
318 317 22
319 317 22
320 317 22
321 317 22
322 317 22
323 317 22
324 317 22
412 317 22
413 317 22
414 317 22
415 317 22
416 317 22
417 317 22
418 317 22
419 317 22
420 317 22
421 317 22
422 317 22
423 317 22
319 318 22
320 318 22
321 318 22
322 318 22
323 318 22
324 318 22
412 318 22
413 318 22
414 318 22
415 318 22
416 318 22
417 318 22
418 318 22
419 318 22
420 318 22
421 318 22
422 318 22
423 318 22
320 319 22
321 319 22
322 319 22
323 319 22
324 319 22
412 319 22
413 319 22
414 319 22
415 319 22
416 319 22
417 319 22
418 319 22
419 319 22
420 319 22
421 319 22
422 319 22
423 319 22
321 320 22
322 320 22
323 320 22
324 320 22
412 320 22
413 320 22
414 320 22
415 320 22
416 320 22
417 320 22
418 320 22
419 320 22
420 320 22
421 320 22
422 320 22
423 320 22
322 321 22
323 321 22
324 321 22
412 321 22
413 321 22
414 321 22
415 321 22
416 321 22
417 321 22
418 321 22
419 321 22
420 321 22
421 321 22
422 321 22
423 321 22
323 322 22
324 322 22
412 322 22
413 322 22
414 322 22
415 322 22
416 322 22
417 322 22
418 322 22
419 322 22
420 322 22
421 322 22
422 322 22
423 322 22
324 323 22
412 323 22
413 323 22
414 323 22
415 323 22
416 323 22
417 323 22
418 323 22
419 323 22
420 323 22
421 323 22
422 323 22
423 323 22
412 324 22
413 324 22
414 324 22
415 324 22
416 324 22
417 324 22
418 324 22
419 324 22
420 324 22
421 324 22
422 324 22
423 324 22
413 412 22
414 412 22
415 412 22
416 412 22
417 412 22
418 412 22
419 412 22
420 412 22
421 412 22
422 412 22
423 412 22
414 413 22
415 413 22
416 413 22
417 413 22
418 413 22
419 413 22
420 413 22
421 413 22
422 413 22
423 413 22
415 414 22
416 414 22
417 414 22
418 414 22
419 414 22
420 414 22
421 414 22
422 414 22
423 414 22
416 415 22
417 415 22
418 415 22
419 415 22
420 415 22
421 415 22
422 415 22
423 415 22
417 416 22
418 416 22
419 416 22
420 416 22
421 416 22
422 416 22
423 416 22
418 417 22
419 417 22
420 417 22
421 417 22
422 417 22
423 417 22
419 418 40
420 418 40
421 418 40
422 418 40
423 418 40
424 418 22
425 418 22
426 418 22
427 418 22
428 418 22
429 418 22
649 418 22
650 418 22
651 418 22
652 418 22
653 418 22
654 418 22
667 418 22
668 418 22
669 418 22
670 418 22
671 418 22
672 418 22
420 419 40
421 419 40
422 419 40
423 419 40
424 419 22
425 419 22
426 419 22
427 419 22
428 419 22
429 419 22
649 419 22
650 419 22
651 419 22
652 419 22
653 419 22
654 419 22
667 419 22
668 419 22
669 419 22
670 419 22
671 419 22
672 419 22
421 420 40
422 420 40
423 420 40
424 420 22
425 420 22
426 420 22
427 420 22
428 420 22
429 420 22
649 420 22
650 420 22
651 420 22
652 420 22
653 420 22
654 420 22
667 420 22
668 420 22
669 420 22
670 420 22
671 420 22
672 420 22
422 421 40
423 421 40
424 421 22
425 421 22
426 421 22
427 421 22
428 421 22
429 421 22
649 421 22
650 421 22
651 421 22
652 421 22
653 421 22
654 421 22
667 421 22
668 421 22
669 421 22
670 421 22
671 421 22
672 421 22
423 422 40
424 422 22
425 422 22
426 422 22
427 422 22
428 422 22
429 422 22
649 422 22
650 422 22
651 422 22
652 422 22
653 422 22
654 422 22
667 422 22
668 422 22
669 422 22
670 422 22
671 422 22
672 422 22
424 423 22
425 423 22
426 423 22
427 423 22
428 423 22
429 423 22
649 423 22
650 423 22
651 423 22
652 423 22
653 423 22
654 423 22
667 423 22
668 423 22
669 423 22
670 423 22
671 423 22
672 423 22
425 424 22
426 424 22
427 424 22
428 424 22
429 424 22
649 424 22
650 424 22
651 424 22
652 424 22
653 424 22
654 424 22
667 424 22
668 424 22
669 424 22
670 424 22
671 424 22
672 424 22
426 425 22
427 425 22
428 425 22
429 425 22
649 425 22
650 425 22
651 425 22
652 425 22
653 425 22
654 425 22
667 425 22
668 425 22
669 425 22
670 425 22
671 425 22
672 425 22
427 426 22
428 426 22
429 426 22
649 426 22
650 426 22
651 426 22
652 426 22
653 426 22
654 426 22
667 426 22
668 426 22
669 426 22
670 426 22
671 426 22
672 426 22
428 427 22
429 427 22
649 427 22
650 427 22
651 427 22
652 427 22
653 427 22
654 427 22
667 427 22
668 427 22
669 427 22
670 427 22
671 427 22
672 427 22
429 428 22
649 428 22
650 428 22
651 428 22
652 428 22
653 428 22
654 428 22
667 428 22
668 428 22
669 428 22
670 428 22
671 428 22
672 428 22
649 429 22
650 429 22
651 429 22
652 429 22
653 429 22
654 429 22
667 429 22
668 429 22
669 429 22
670 429 22
671 429 22
672 429 22
443 442 22
444 442 22
445 442 22
446 442 22
447 442 22
727 442 22
728 442 22
729 442 22
730 442 22
731 442 22
732 442 22
733 442 22
734 442 22
735 442 22
736 442 22
737 442 22
738 442 22
444 443 22
445 443 22
446 443 22
447 443 22
727 443 22
728 443 22
729 443 22
730 443 22
731 443 22
732 443 22
733 443 22
734 443 22
735 443 22
736 443 22
737 443 22
738 443 22
445 444 22
446 444 22
447 444 22
727 444 22
728 444 22
729 444 22
730 444 22
731 444 22
732 444 22
733 444 22
734 444 22
735 444 22
736 444 22
737 444 22
738 444 22
446 445 22
447 445 22
727 445 22
728 445 22
729 445 22
730 445 22
731 445 22
732 445 22
733 445 22
734 445 22
735 445 22
736 445 22
737 445 22
738 445 22
447 446 22
727 446 22
728 446 22
729 446 22
730 446 22
731 446 22
732 446 22
733 446 22
734 446 22
735 446 22
736 446 22
737 446 22
738 446 22
727 447 22
728 447 22
729 447 22
730 447 22
731 447 22
732 447 22
733 447 22
734 447 22
735 447 22
736 447 22
737 447 22
738 447 22
650 649 22
651 649 22
652 649 22
653 649 22
654 649 22
667 649 22
668 649 22
669 649 22
670 649 22
671 649 22
672 649 22
651 650 22
652 650 22
653 650 22
654 650 22
667 650 22
668 650 22
669 650 22
670 650 22
671 650 22
672 650 22
652 651 22
653 651 22
654 651 22
667 651 22
668 651 22
669 651 22
670 651 22
671 651 22
672 651 22
653 652 22
654 652 22
667 652 22
668 652 22
669 652 22
670 652 22
671 652 22
672 652 22
654 653 22
667 653 22
668 653 22
669 653 22
670 653 22
671 653 22
672 653 22
667 654 22
668 654 22
669 654 22
670 654 22
671 654 22
672 654 22
668 667 22
669 667 22
670 667 22
671 667 22
672 667 22
669 668 22
670 668 22
671 668 22
672 668 22
670 669 22
671 669 22
672 669 22
671 670 22
672 670 22
672 671 22
728 727 22
729 727 22
730 727 22
731 727 22
732 727 22
733 727 22
734 727 22
735 727 22
736 727 22
737 727 22
738 727 22
729 728 22
730 728 22
731 728 22
732 728 22
733 728 22
734 728 22
735 728 22
736 728 22
737 728 22
738 728 22
730 729 22
731 729 22
732 729 22
733 729 22
734 729 22
735 729 22
736 729 22
737 729 22
738 729 22
731 730 22
732 730 22
733 730 22
734 730 22
735 730 22
736 730 22
737 730 22
738 730 22
732 731 22
733 731 22
734 731 22
735 731 22
736 731 22
737 731 22
738 731 22
733 732 22
734 732 22
735 732 22
736 732 22
737 732 22
738 732 22
734 733 22
735 733 22
736 733 22
737 733 22
738 733 22
735 734 22
736 734 22
737 734 22
738 734 22
736 735 22
737 735 22
738 735 22
737 736 22
738 736 22
738 737 22
855 850 24
856 850 24
857 850 24
858 850 24
859 850 24
863 850 24
868 850 24
869 850 24
870 850 24
871 850 24
872 850 24
896 850 24
897 850 24
902 850 24
903 850 24
904 850 24
905 850 24
906 850 24
910 850 24
911 850 24
915 850 24
916 850 24
917 850 24
918 850 24
919 850 24
856 855 24
857 855 24
858 855 24
859 855 24
863 855 24
868 855 24
869 855 24
870 855 24
871 855 24
872 855 24
896 855 24
897 855 24
902 855 24
903 855 24
904 855 24
905 855 24
906 855 24
910 855 24
911 855 24
915 855 24
916 855 24
917 855 24
918 855 24
919 855 24
857 856 24
858 856 24
859 856 24
863 856 24
868 856 24
869 856 24
870 856 24
871 856 24
872 856 24
896 856 24
897 856 24
902 856 24
903 856 24
904 856 24
905 856 24
906 856 24
910 856 24
911 856 24
915 856 24
916 856 24
917 856 24
918 856 24
919 856 24
858 857 24
859 857 24
863 857 24
868 857 24
869 857 24
870 857 24
871 857 24
872 857 24
896 857 24
897 857 24
902 857 24
903 857 24
904 857 24
905 857 24
906 857 24
910 857 24
911 857 24
915 857 24
916 857 24
917 857 24
918 857 24
919 857 24
859 858 24
863 858 24
868 858 24
869 858 24
870 858 24
871 858 24
872 858 24
896 858 24
897 858 24
902 858 24
903 858 24
904 858 24
905 858 24
906 858 24
910 858 24
911 858 24
915 858 24
916 858 24
917 858 24
918 858 24
919 858 24
863 859 24
868 859 24
869 859 24
870 859 24
871 859 24
872 859 24
896 859 24
897 859 24
902 859 24
903 859 24
904 859 24
905 859 24
906 859 24
910 859 24
911 859 24
915 859 24
916 859 24
917 859 24
918 859 24
919 859 24
868 863 37
869 863 37
870 863 37
871 863 37
872 863 37
896 863 24
897 863 24
902 863 24
903 863 24
904 863 24
905 863 24
906 863 24
910 863 37
911 863 37
915 863 37
916 863 37
917 863 37
918 863 37
919 863 37
1207 863 24
1208 863 24
1209 863 24
1210 863 24
1211 863 24
1212 863 24
1217 863 24
1218 863 24
1219 863 24
1220 863 24
1221 863 24
1222 863 24
1223 863 24
869 868 37
870 868 37
871 868 37
872 868 37
896 868 24
897 868 24
902 868 24
903 868 24
904 868 24
905 868 24
906 868 24
910 868 37
911 868 37
915 868 37
916 868 37
917 868 37
918 868 37
919 868 37
1207 868 24
1208 868 24
1209 868 24
1210 868 24
1211 868 24
1212 868 24
1217 868 24
1218 868 24
1219 868 24
1220 868 24
1221 868 24
1222 868 24
1223 868 24
870 869 37
871 869 37
872 869 37
896 869 24
897 869 24
902 869 24
903 869 24
904 869 24
905 869 24
906 869 24
910 869 37
911 869 37
915 869 37
916 869 37
917 869 37
918 869 37
919 869 37
1207 869 24
1208 869 24
1209 869 24
1210 869 24
1211 869 24
1212 869 24
1217 869 24
1218 869 24
1219 869 24
1220 869 24
1221 869 24
1222 869 24
1223 869 24
871 870 37
872 870 37
896 870 24
897 870 24
902 870 24
903 870 24
904 870 24
905 870 24
906 870 24
910 870 37
911 870 37
915 870 37
916 870 37
917 870 37
918 870 37
919 870 37
1207 870 24
1208 870 24
1209 870 24
1210 870 24
1211 870 24
1212 870 24
1217 870 24
1218 870 24
1219 870 24
1220 870 24
1221 870 24
1222 870 24
1223 870 24
872 871 37
896 871 24
897 871 24
902 871 24
903 871 24
904 871 24
905 871 24
906 871 24
910 871 37
911 871 37
915 871 37
916 871 37
917 871 37
918 871 37
919 871 37
1207 871 24
1208 871 24
1209 871 24
1210 871 24
1211 871 24
1212 871 24
1217 871 24
1218 871 24
1219 871 24
1220 871 24
1221 871 24
1222 871 24
1223 871 24
896 872 24
897 872 24
902 872 24
903 872 24
904 872 24
905 872 24
906 872 24
910 872 37
911 872 37
915 872 37
916 872 37
917 872 37
918 872 37
919 872 37
1207 872 24
1208 872 24
1209 872 24
1210 872 24
1211 872 24
1212 872 24
1217 872 24
1218 872 24
1219 872 24
1220 872 24
1221 872 24
1222 872 24
1223 872 24
881 876 24
882 876 24
883 876 24
884 876 24
885 876 24
886 876 24
891 876 24
892 876 24
893 876 24
894 876 24
895 876 24
923 876 24
924 876 24
925 876 24
926 876 24
927 876 24
928 876 24
929 876 24
934 876 24
935 876 24
936 876 24
937 876 24
938 876 24
939 876 24
940 876 24
882 881 24
883 881 24
884 881 24
885 881 24
886 881 24
891 881 24
892 881 24
893 881 24
894 881 24
895 881 24
923 881 24
924 881 24
925 881 24
926 881 24
927 881 24
928 881 24
929 881 24
934 881 24
935 881 24
936 881 24
937 881 24
938 881 24
939 881 24
940 881 24
883 882 24
884 882 24
885 882 24
886 882 24
891 882 24
892 882 24
893 882 24
894 882 24
895 882 24
923 882 24
924 882 24
925 882 24
926 882 24
927 882 24
928 882 24
929 882 24
934 882 24
935 882 24
936 882 24
937 882 24
938 882 24
939 882 24
940 882 24
884 883 24
885 883 24
886 883 24
891 883 24
892 883 24
893 883 24
894 883 24
895 883 24
923 883 24
924 883 24
925 883 24
926 883 24
927 883 24
928 883 24
929 883 24
934 883 24
935 883 24
936 883 24
937 883 24
938 883 24
939 883 24
940 883 24
885 884 24
886 884 24
891 884 24
892 884 24
893 884 24
894 884 24
895 884 24
923 884 24
924 884 24
925 884 24
926 884 24
927 884 24
928 884 24
929 884 24
934 884 24
935 884 24
936 884 24
937 884 24
938 884 24
939 884 24
940 884 24
886 885 24
891 885 24
892 885 24
893 885 24
894 885 24
895 885 24
923 885 24
924 885 24
925 885 24
926 885 24
927 885 24
928 885 24
929 885 24
934 885 24
935 885 24
936 885 24
937 885 24
938 885 24
939 885 24
940 885 24
891 886 37
892 886 37
893 886 37
894 886 37
895 886 37
923 886 24
924 886 24
925 886 24
926 886 24
927 886 24
928 886 24
929 886 24
934 886 37
935 886 37
936 886 37
937 886 37
938 886 37
939 886 37
940 886 37
1170 886 24
1171 886 24
1172 886 24
1173 886 24
1174 886 24
1175 886 24
1176 886 24
1181 886 24
1182 886 24
1183 886 24
1188 886 24
1189 886 24
1190 886 24
892 891 37
893 891 37
894 891 37
895 891 37
923 891 24
924 891 24
925 891 24
926 891 24
927 891 24
928 891 24
929 891 24
934 891 37
935 891 37
936 891 37
937 891 37
938 891 37
939 891 37
940 891 37
1170 891 24
1171 891 24
1172 891 24
1173 891 24
1174 891 24
1175 891 24
1176 891 24
1181 891 24
1182 891 24
1183 891 24
1188 891 24
1189 891 24
1190 891 24
893 892 37
894 892 37
895 892 37
923 892 24
924 892 24
925 892 24
926 892 24
927 892 24
928 892 24
929 892 24
934 892 37
935 892 37
936 892 37
937 892 37
938 892 37
939 892 37
940 892 37
1170 892 24
1171 892 24
1172 892 24
1173 892 24
1174 892 24
1175 892 24
1176 892 24
1181 892 24
1182 892 24
1183 892 24
1188 892 24
1189 892 24
1190 892 24
894 893 37
895 893 37
923 893 24
924 893 24
925 893 24
926 893 24
927 893 24
928 893 24
929 893 24
934 893 37
935 893 37
936 893 37
937 893 37
938 893 37
939 893 37
940 893 37
1170 893 24
1171 893 24
1172 893 24
1173 893 24
1174 893 24
1175 893 24
1176 893 24
1181 893 24
1182 893 24
1183 893 24
1188 893 24
1189 893 24
1190 893 24
895 894 37
923 894 24
924 894 24
925 894 24
926 894 24
927 894 24
928 894 24
929 894 24
934 894 37
935 894 37
936 894 37
937 894 37
938 894 37
939 894 37
940 894 37
1170 894 24
1171 894 24
1172 894 24
1173 894 24
1174 894 24
1175 894 24
1176 894 24
1181 894 24
1182 894 24
1183 894 24
1188 894 24
1189 894 24
1190 894 24
923 895 24
924 895 24
925 895 24
926 895 24
927 895 24
928 895 24
929 895 24
934 895 37
935 895 37
936 895 37
937 895 37
938 895 37
939 895 37
940 895 37
1170 895 24
1171 895 24
1172 895 24
1173 895 24
1174 895 24
1175 895 24
1176 895 24
1181 895 24
1182 895 24
1183 895 24
1188 895 24
1189 895 24
1190 895 24
897 896 38
902 896 38
903 896 38
904 896 38
905 896 38
906 896 38
910 896 38
911 896 38
915 896 38
916 896 38
917 896 38
918 896 38
919 896 38
944 896 26
945 896 26
950 896 26
951 896 26
952 896 26
953 896 26
954 896 26
1079 896 26
1080 896 26
1081 896 26
1082 896 26
1083 896 26
1084 896 26
1085 896 26
902 897 38
903 897 38
904 897 38
905 897 38
906 897 38
910 897 38
911 897 38
915 897 38
916 897 38
917 897 38
918 897 38
919 897 38
944 897 26
945 897 26
950 897 26
951 897 26
952 897 26
953 897 26
954 897 26
1079 897 26
1080 897 26
1081 897 26
1082 897 26
1083 897 26
1084 897 26
1085 897 26
903 902 38
904 902 38
905 902 38
906 902 38
910 902 38
911 902 38
915 902 38
916 902 38
917 902 38
918 902 38
919 902 38
944 902 26
945 902 26
950 902 26
951 902 26
952 902 26
953 902 26
954 902 26
1079 902 26
1080 902 26
1081 902 26
1082 902 26
1083 902 26
1084 902 26
1085 902 26
904 903 38
905 903 38
906 903 38
910 903 38
911 903 38
915 903 38
916 903 38
917 903 38
918 903 38
919 903 38
944 903 26
945 903 26
950 903 26
951 903 26
952 903 26
953 903 26
954 903 26
1079 903 26
1080 903 26
1081 903 26
1082 903 26
1083 903 26
1084 903 26
1085 903 26
905 904 50
906 904 50
907 904 22
908 904 22
909 904 22
910 904 38
911 904 38
915 904 38
916 904 38
917 904 50
918 904 50
919 904 50
920 904 22
921 904 22
922 904 22
944 904 26
945 904 26
950 904 26
951 904 26
952 904 38
953 904 38
954 904 38
955 904 22
956 904 22
957 904 22
1042 904 22
1043 904 22
1044 904 22
1079 904 38
1080 904 38
1081 904 38
1082 904 26
1083 904 26
1084 904 26
1085 904 26
906 905 50
907 905 22
908 905 22
909 905 22
910 905 38
911 905 38
915 905 38
916 905 38
917 905 50
918 905 50
919 905 50
920 905 22
921 905 22
922 905 22
944 905 26
945 905 26
950 905 26
951 905 26
952 905 38
953 905 38
954 905 38
955 905 22
956 905 22
957 905 22
1042 905 22
1043 905 22
1044 905 22
1079 905 38
1080 905 38
1081 905 38
1082 905 26
1083 905 26
1084 905 26
1085 905 26
907 906 22
908 906 22
909 906 22
910 906 38
911 906 38
915 906 38
916 906 38
917 906 50
918 906 50
919 906 50
920 906 22
921 906 22
922 906 22
944 906 26
945 906 26
950 906 26
951 906 26
952 906 38
953 906 38
954 906 38
955 906 22
956 906 22
957 906 22
1042 906 22
1043 906 22
1044 906 22
1079 906 38
1080 906 38
1081 906 38
1082 906 26
1083 906 26
1084 906 26
1085 906 26
908 907 34
909 907 34
917 907 22
918 907 22
919 907 22
920 907 34
921 907 34
922 907 34
925 907 22
926 907 22
927 907 22
936 907 22
937 907 22
938 907 22
952 907 22
953 907 22
954 907 22
955 907 34
956 907 34
957 907 34
1010 907 22
1011 907 22
1012 907 22
1039 907 22
1040 907 22
1041 907 22
1042 907 34
1043 907 34
1044 907 34
1079 907 22
1080 907 22
1081 907 22
909 908 34
917 908 22
918 908 22
919 908 22
920 908 34
921 908 34
922 908 34
925 908 22
926 908 22
927 908 22
936 908 22
937 908 22
938 908 22
952 908 22
953 908 22
954 908 22
955 908 34
956 908 34
957 908 34
1010 908 22
1011 908 22
1012 908 22
1039 908 22
1040 908 22
1041 908 22
1042 908 34
1043 908 34
1044 908 34
1079 908 22
1080 908 22
1081 908 22
917 909 22
918 909 22
919 909 22
920 909 34
921 909 34
922 909 34
925 909 22
926 909 22
927 909 22
936 909 22
937 909 22
938 909 22
952 909 22
953 909 22
954 909 22
955 909 34
956 909 34
957 909 34
1010 909 22
1011 909 22
1012 909 22
1039 909 22
1040 909 22
1041 909 22
1042 909 34
1043 909 34
1044 909 34
1079 909 22
1080 909 22
1081 909 22
911 910 58
915 910 58
916 910 58
917 910 58
918 910 58
919 910 58
944 910 26
945 910 26
950 910 26
951 910 26
952 910 26
953 910 26
954 910 26
1079 910 40
1080 910 40
1081 910 40
1082 910 40
1083 910 40
1084 910 40
1085 910 40
1207 910 24
1208 910 24
1209 910 24
1210 910 24
1211 910 24
1212 910 24
1217 910 38
1218 910 38
1219 910 38
1220 910 38
1221 910 37
1222 910 38
1223 910 38
1228 910 26
1229 910 25
1230 910 26
1231 910 26
1232 910 26
1233 910 26
1234 910 26
915 911 58
916 911 58
917 911 58
918 911 58
919 911 58
944 911 26
945 911 26
950 911 26
951 911 26
952 911 26
953 911 26
954 911 26
1079 911 40
1080 911 40
1081 911 40
1082 911 40
1083 911 40
1084 911 40
1085 911 40
1207 911 24
1208 911 24
1209 911 24
1210 911 24
1211 911 24
1212 911 24
1217 911 38
1218 911 38
1219 911 38
1220 911 38
1221 911 37
1222 911 38
1223 911 38
1228 911 26
1229 911 25
1230 911 26
1231 911 26
1232 911 26
1233 911 26
1234 911 26
916 915 58
917 915 58
918 915 58
919 915 58
944 915 26
945 915 26
950 915 26
951 915 26
952 915 26
953 915 26
954 915 26
1079 915 40
1080 915 40
1081 915 40
1082 915 40
1083 915 40
1084 915 40
1085 915 40
1207 915 24
1208 915 24
1209 915 24
1210 915 24
1211 915 24
1212 915 24
1217 915 38
1218 915 38
1219 915 38
1220 915 38
1221 915 37
1222 915 38
1223 915 38
1228 915 26
1229 915 25
1230 915 26
1231 915 26
1232 915 26
1233 915 26
1234 915 26
917 916 58
918 916 58
919 916 58
944 916 26
945 916 26
950 916 26
951 916 26
952 916 26
953 916 26
954 916 26
1079 916 40
1080 916 40
1081 916 40
1082 916 40
1083 916 40
1084 916 40
1085 916 40
1207 916 24
1208 916 24
1209 916 24
1210 916 24
1211 916 24
1212 916 24
1217 916 38
1218 916 38
1219 916 38
1220 916 38
1221 916 37
1222 916 38
1223 916 38
1228 916 26
1229 916 25
1230 916 26
1231 916 26
1232 916 26
1233 916 26
1234 916 26
918 917 76
919 917 76
920 917 34
921 917 34
922 917 34
944 917 26
945 917 26
950 917 26
951 917 26
952 917 38
953 917 38
954 917 38
955 917 22
956 917 22
957 917 22
1042 917 34
1043 917 34
1044 917 34
1079 917 58
1080 917 58
1081 917 58
1082 917 40
1083 917 40
1084 917 40
1085 917 40
1116 917 22
1117 917 22
1118 917 22
1119 917 22
1120 917 22
1121 917 22
1207 917 24
1208 917 24
1209 917 24
1210 917 24
1211 917 24
1212 917 24
1217 917 50
1218 917 50
1219 917 50
1220 917 38
1221 917 37
1222 917 38
1223 917 38
1228 917 38
1229 917 37
1230 917 38
1231 917 26
1232 917 26
1233 917 26
1234 917 26
919 918 76
920 918 34
921 918 34
922 918 34
944 918 26
945 918 26
950 918 26
951 918 26
952 918 38
953 918 38
954 918 38
955 918 22
956 918 22
957 918 22
1042 918 34
1043 918 34
1044 918 34
1079 918 58
1080 918 58
1081 918 58
1082 918 40
1083 918 40
1084 918 40
1085 918 40
1116 918 22
1117 918 22
1118 918 22
1119 918 22
1120 918 22
1121 918 22
1207 918 24
1208 918 24
1209 918 24
1210 918 24
1211 918 24
1212 918 24
1217 918 50
1218 918 50
1219 918 50
1220 918 38
1221 918 37
1222 918 38
1223 918 38
1228 918 38
1229 918 37
1230 918 38
1231 918 26
1232 918 26
1233 918 26
1234 918 26
920 919 34
921 919 34
922 919 34
944 919 26
945 919 26
950 919 26
951 919 26
952 919 38
953 919 38
954 919 38
955 919 22
956 919 22
957 919 22
1042 919 34
1043 919 34
1044 919 34
1079 919 58
1080 919 58
1081 919 58
1082 919 40
1083 919 40
1084 919 40
1085 919 40
1116 919 22
1117 919 22
1118 919 22
1119 919 22
1120 919 22
1121 919 22
1207 919 24
1208 919 24
1209 919 24
1210 919 24
1211 919 24
1212 919 24
1217 919 50
1218 919 50
1219 919 50
1220 919 38
1221 919 37
1222 919 38
1223 919 38
1228 919 38
1229 919 37
1230 919 38
1231 919 26
1232 919 26
1233 919 26
1234 919 26
921 920 52
922 920 52
925 920 22
926 920 22
927 920 22
936 920 34
937 920 34
938 920 34
952 920 22
953 920 22
954 920 22
955 920 34
956 920 34
957 920 34
1010 920 22
1011 920 22
1012 920 22
1039 920 34
1040 920 34
1041 920 34
1042 920 52
1043 920 52
1044 920 52
1079 920 34
1080 920 34
1081 920 34
1116 920 34
1117 920 34
1118 920 34
1119 920 34
1120 920 34
1121 920 34
1161 920 22
1162 920 22
1163 920 22
1172 920 22
1173 920 22
1174 920 22
1217 920 22
1218 920 22
1219 920 22
1228 920 22
1229 920 22
1230 920 22
922 921 52
925 921 22
926 921 22
927 921 22
936 921 34
937 921 34
938 921 34
952 921 22
953 921 22
954 921 22
955 921 34
956 921 34
957 921 34
1010 921 22
1011 921 22
1012 921 22
1039 921 34
1040 921 34
1041 921 34
1042 921 52
1043 921 52
1044 921 52
1079 921 34
1080 921 34
1081 921 34
1116 921 34
1117 921 34
1118 921 34
1119 921 34
1120 921 34
1121 921 34
1161 921 22
1162 921 22
1163 921 22
1172 921 22
1173 921 22
1174 921 22
1217 921 22
1218 921 22
1219 921 22
1228 921 22
1229 921 22
1230 921 22
925 922 22
926 922 22
927 922 22
936 922 34
937 922 34
938 922 34
952 922 22
953 922 22
954 922 22
955 922 34
956 922 34
957 922 34
1010 922 22
1011 922 22
1012 922 22
1039 922 34
1040 922 34
1041 922 34
1042 922 52
1043 922 52
1044 922 52
1079 922 34
1080 922 34
1081 922 34
1116 922 34
1117 922 34
1118 922 34
1119 922 34
1120 922 34
1121 922 34
1161 922 22
1162 922 22
1163 922 22
1172 922 22
1173 922 22
1174 922 22
1217 922 22
1218 922 22
1219 922 22
1228 922 22
1229 922 22
1230 922 22
924 923 38
925 923 38
926 923 38
927 923 38
928 923 38
929 923 38
934 923 38
935 923 38
936 923 38
937 923 38
938 923 38
939 923 38
940 923 38
1006 923 26
1007 923 26
1010 923 26
1011 923 26
1012 923 26
1026 923 26
1027 923 26
1032 923 26
1033 923 26
1034 923 26
1035 923 26
1039 923 26
1040 923 26
1041 923 26
925 924 38
926 924 38
927 924 38
928 924 38
929 924 38
934 924 38
935 924 38
936 924 38
937 924 38
938 924 38
939 924 38
940 924 38
1006 924 26
1007 924 26
1010 924 26
1011 924 26
1012 924 26
1026 924 26
1027 924 26
1032 924 26
1033 924 26
1034 924 26
1035 924 26
1039 924 26
1040 924 26
1041 924 26
926 925 50
927 925 50
928 925 38
929 925 38
934 925 38
935 925 38
936 925 50
937 925 50
938 925 50
939 925 38
940 925 38
955 925 22
956 925 22
957 925 22
1006 925 26
1007 925 26
1010 925 38
1011 925 38
1012 925 38
1026 925 26
1027 925 26
1032 925 26
1033 925 26
1034 925 26
1035 925 26
1039 925 38
1040 925 38
1041 925 38
1042 925 22
1043 925 22
1044 925 22
927 926 50
928 926 38
929 926 38
934 926 38
935 926 38
936 926 50
937 926 50
938 926 50
939 926 38
940 926 38
955 926 22
956 926 22
957 926 22
1006 926 26
1007 926 26
1010 926 38
1011 926 38
1012 926 38
1026 926 26
1027 926 26
1032 926 26
1033 926 26
1034 926 26
1035 926 26
1039 926 38
1040 926 38
1041 926 38
1042 926 22
1043 926 22
1044 926 22
928 927 38
929 927 38
934 927 38
935 927 38
936 927 50
937 927 50
938 927 50
939 927 38
940 927 38
955 927 22
956 927 22
957 927 22
1006 927 26
1007 927 26
1010 927 38
1011 927 38
1012 927 38
1026 927 26
1027 927 26
1032 927 26
1033 927 26
1034 927 26
1035 927 26
1039 927 38
1040 927 38
1041 927 38
1042 927 22
1043 927 22
1044 927 22
929 928 38
934 928 38
935 928 38
936 928 38
937 928 38
938 928 38
939 928 38
940 928 38
1006 928 26
1007 928 26
1010 928 26
1011 928 26
1012 928 26
1026 928 26
1027 928 26
1032 928 26
1033 928 26
1034 928 26
1035 928 26
1039 928 26
1040 928 26
1041 928 26
934 929 38
935 929 38
936 929 38
937 929 38
938 929 38
939 929 38
940 929 38
1006 929 26
1007 929 26
1010 929 26
1011 929 26
1012 929 26
1026 929 26
1027 929 26
1032 929 26
1033 929 26
1034 929 26
1035 929 26
1039 929 26
1040 929 26
1041 929 26
935 934 58
936 934 58
937 934 58
938 934 58
939 934 58
940 934 58
1006 934 26
1007 934 26
1010 934 26
1011 934 26
1012 934 26
1026 934 26
1027 934 26
1032 934 40
1033 934 40
1034 934 40
1035 934 40
1039 934 40
1040 934 40
1041 934 40
1159 934 26
1160 934 26
1161 934 26
1162 934 26
1163 934 26
1164 934 26
1165 934 26
1170 934 38
1171 934 38
1172 934 38
1173 934 38
1174 934 38
1175 934 38
1176 934 38
1181 934 24
1182 934 24
1183 934 24
1188 934 24
1189 934 24
1190 934 24
936 935 58
937 935 58
938 935 58
939 935 58
940 935 58
1006 935 26
1007 935 26
1010 935 26
1011 935 26
1012 935 26
1026 935 26
1027 935 26
1032 935 40
1033 935 40
1034 935 40
1035 935 40
1039 935 40
1040 935 40
1041 935 40
1159 935 26
1160 935 26
1161 935 26
1162 935 26
1163 935 26
1164 935 26
1165 935 26
1170 935 38
1171 935 38
1172 935 38
1173 935 38
1174 935 38
1175 935 38
1176 935 38
1181 935 24
1182 935 24
1183 935 24
1188 935 24
1189 935 24
1190 935 24
937 936 76
938 936 76
939 936 58
940 936 58
955 936 22
956 936 22
957 936 22
1006 936 26
1007 936 26
1010 936 38
1011 936 38
1012 936 38
1026 936 26
1027 936 26
1032 936 40
1033 936 40
1034 936 40
1035 936 40
1039 936 58
1040 936 58
1041 936 58
1042 936 34
1043 936 34
1044 936 34
1116 936 22
1117 936 22
1118 936 22
1119 936 22
1120 936 22
1121 936 22
1159 936 26
1160 936 26
1161 936 38
1162 936 38
1163 936 38
1164 936 26
1165 936 26
1170 936 38
1171 936 38
1172 936 50
1173 936 50
1174 936 50
1175 936 38
1176 936 38
1181 936 24
1182 936 24
1183 936 24
1188 936 24
1189 936 24
1190 936 24
938 937 76
939 937 58
940 937 58
955 937 22
956 937 22
957 937 22
1006 937 26
1007 937 26
1010 937 38
1011 937 38
1012 937 38
1026 937 26
1027 937 26
1032 937 40
1033 937 40
1034 937 40
1035 937 40
1039 937 58
1040 937 58
1041 937 58
1042 937 34
1043 937 34
1044 937 34
1116 937 22
1117 937 22
1118 937 22
1119 937 22
1120 937 22
1121 937 22
1159 937 26
1160 937 26
1161 937 38
1162 937 38
1163 937 38
1164 937 26
1165 937 26
1170 937 38
1171 937 38
1172 937 50
1173 937 50
1174 937 50
1175 937 38
1176 937 38
1181 937 24
1182 937 24
1183 937 24
1188 937 24
1189 937 24
1190 937 24
939 938 58
940 938 58
955 938 22
956 938 22
957 938 22
1006 938 26
1007 938 26
1010 938 38
1011 938 38
1012 938 38
1026 938 26
1027 938 26
1032 938 40
1033 938 40
1034 938 40
1035 938 40
1039 938 58
1040 938 58
1041 938 58
1042 938 34
1043 938 34
1044 938 34
1116 938 22
1117 938 22
1118 938 22
1119 938 22
1120 938 22
1121 938 22
1159 938 26
1160 938 26
1161 938 38
1162 938 38
1163 938 38
1164 938 26
1165 938 26
1170 938 38
1171 938 38
1172 938 50
1173 938 50
1174 938 50
1175 938 38
1176 938 38
1181 938 24
1182 938 24
1183 938 24
1188 938 24
1189 938 24
1190 938 24
940 939 58
1006 939 26
1007 939 26
1010 939 26
1011 939 26
1012 939 26
1026 939 26
1027 939 26
1032 939 40
1033 939 40
1034 939 40
1035 939 40
1039 939 40
1040 939 40
1041 939 40
1159 939 26
1160 939 26
1161 939 26
1162 939 26
1163 939 26
1164 939 26
1165 939 26
1170 939 38
1171 939 38
1172 939 38
1173 939 38
1174 939 38
1175 939 38
1176 939 38
1181 939 24
1182 939 24
1183 939 24
1188 939 24
1189 939 24
1190 939 24
1006 940 26
1007 940 26
1010 940 26
1011 940 26
1012 940 26
1026 940 26
1027 940 26
1032 940 40
1033 940 40
1034 940 40
1035 940 40
1039 940 40
1040 940 40
1041 940 40
1159 940 26
1160 940 26
1161 940 26
1162 940 26
1163 940 26
1164 940 26
1165 940 26
1170 940 38
1171 940 38
1172 940 38
1173 940 38
1174 940 38
1175 940 38
1176 940 38
1181 940 24
1182 940 24
1183 940 24
1188 940 24
1189 940 24
1190 940 24
945 944 40
950 944 40
951 944 40
952 944 40
953 944 40
954 944 40
958 944 26
959 944 26
964 944 26
965 944 26
966 944 26
967 944 26
968 944 26
1079 944 40
1080 944 40
1081 944 40
1082 944 40
1083 944 40
1084 944 40
1085 944 40
1089 944 26
1090 944 26
1091 944 26
1095 944 26
1096 944 26
1103 944 26
1104 944 26
950 945 40
951 945 40
952 945 40
953 945 40
954 945 40
958 945 26
959 945 26
964 945 26
965 945 26
966 945 26
967 945 26
968 945 26
1079 945 40
1080 945 40
1081 945 40
1082 945 40
1083 945 40
1084 945 40
1085 945 40
1089 945 26
1090 945 26
1091 945 26
1095 945 26
1096 945 26
1103 945 26
1104 945 26
951 950 40
952 950 40
953 950 40
954 950 40
958 950 26
959 950 26
964 950 26
965 950 26
966 950 26
967 950 26
968 950 26
1079 950 40
1080 950 40
1081 950 40
1082 950 40
1083 950 40
1084 950 40
1085 950 40
1089 950 26
1090 950 26
1091 950 26
1095 950 26
1096 950 26
1103 950 26
1104 950 26
952 951 40
953 951 40
954 951 40
958 951 26
959 951 26
964 951 26
965 951 26
966 951 26
967 951 26
968 951 26
1079 951 40
1080 951 40
1081 951 40
1082 951 40
1083 951 40
1084 951 40
1085 951 40
1089 951 26
1090 951 26
1091 951 26
1095 951 26
1096 951 26
1103 951 26
1104 951 26
953 952 58
954 952 58
955 952 34
956 952 34
957 952 34
958 952 26
959 952 26
964 952 26
965 952 26
966 952 38
967 952 38
968 952 38
969 952 22
970 952 22
971 952 22
1042 952 34
1043 952 34
1044 952 34
1045 952 22
1046 952 22
1047 952 22
1079 952 58
1080 952 58
1081 952 58
1082 952 40
1083 952 40
1084 952 40
1085 952 40
1089 952 38
1090 952 38
1091 952 38
1095 952 26
1096 952 26
1103 952 26
1104 952 26
954 953 58
955 953 34
956 953 34
957 953 34
958 953 26
959 953 26
964 953 26
965 953 26
966 953 38
967 953 38
968 953 38
969 953 22
970 953 22
971 953 22
1042 953 34
1043 953 34
1044 953 34
1045 953 22
1046 953 22
1047 953 22
1079 953 58
1080 953 58
1081 953 58
1082 953 40
1083 953 40
1084 953 40
1085 953 40
1089 953 38
1090 953 38
1091 953 38
1095 953 26
1096 953 26
1103 953 26
1104 953 26
955 954 34
956 954 34
957 954 34
958 954 26
959 954 26
964 954 26
965 954 26
966 954 38
967 954 38
968 954 38
969 954 22
970 954 22
971 954 22
1042 954 34
1043 954 34
1044 954 34
1045 954 22
1046 954 22
1047 954 22
1079 954 58
1080 954 58
1081 954 58
1082 954 40
1083 954 40
1084 954 40
1085 954 40
1089 954 38
1090 954 38
1091 954 38
1095 954 26
1096 954 26
1103 954 26
1104 954 26
956 955 52
957 955 52
966 955 22
967 955 22
968 955 22
969 955 34
970 955 34
971 955 34
1010 955 34
1011 955 34
1012 955 34
1013 955 22
1014 955 22
1015 955 22
1039 955 34
1040 955 34
1041 955 34
1042 955 52
1043 955 52
1044 955 52
1045 955 34
1046 955 34
1047 955 34
1050 955 22
1051 955 22
1052 955 22
1079 955 34
1080 955 34
1081 955 34
1089 955 22
1090 955 22
1091 955 22
957 956 52
966 956 22
967 956 22
968 956 22
969 956 34
970 956 34
971 956 34
1010 956 34
1011 956 34
1012 956 34
1013 956 22
1014 956 22
1015 956 22
1039 956 34
1040 956 34
1041 956 34
1042 956 52
1043 956 52
1044 956 52
1045 956 34
1046 956 34
1047 956 34
1050 956 22
1051 956 22
1052 956 22
1079 956 34
1080 956 34
1081 956 34
1089 956 22
1090 956 22
1091 956 22
966 957 22
967 957 22
968 957 22
969 957 34
970 957 34
971 957 34
1010 957 34
1011 957 34
1012 957 34
1013 957 22
1014 957 22
1015 957 22
1039 957 34
1040 957 34
1041 957 34
1042 957 52
1043 957 52
1044 957 52
1045 957 34
1046 957 34
1047 957 34
1050 957 22
1051 957 22
1052 957 22
1079 957 34
1080 957 34
1081 957 34
1089 957 22
1090 957 22
1091 957 22
959 958 38
964 958 38
965 958 38
966 958 38
967 958 38
968 958 38
972 958 24
977 958 24
978 958 24
979 958 24
980 958 24
981 958 24
1079 958 26
1080 958 26
1081 958 26
1082 958 26
1083 958 26
1084 958 26
1085 958 26
1089 958 38
1090 958 38
1091 958 38
1092 958 24
1093 958 24
1094 958 24
1095 958 38
1096 958 38
1097 958 24
1098 958 24
1103 958 38
1104 958 38
1108 958 24
964 959 38
965 959 38
966 959 38
967 959 38
968 959 38
972 959 24
977 959 24
978 959 24
979 959 24
980 959 24
981 959 24
1079 959 26
1080 959 26
1081 959 26
1082 959 26
1083 959 26
1084 959 26
1085 959 26
1089 959 38
1090 959 38
1091 959 38
1092 959 24
1093 959 24
1094 959 24
1095 959 38
1096 959 38
1097 959 24
1098 959 24
1103 959 38
1104 959 38
1108 959 24
965 964 38
966 964 38
967 964 38
968 964 38
972 964 24
977 964 24
978 964 24
979 964 24
980 964 24
981 964 24
1079 964 26
1080 964 26
1081 964 26
1082 964 26
1083 964 26
1084 964 26
1085 964 26
1089 964 38
1090 964 38
1091 964 38
1092 964 24
1093 964 24
1094 964 24
1095 964 38
1096 964 38
1097 964 24
1098 964 24
1103 964 38
1104 964 38
1108 964 24
966 965 38
967 965 38
968 965 38
972 965 24
977 965 24
978 965 24
979 965 24
980 965 24
981 965 24
1079 965 26
1080 965 26
1081 965 26
1082 965 26
1083 965 26
1084 965 26
1085 965 26
1089 965 38
1090 965 38
1091 965 38
1092 965 24
1093 965 24
1094 965 24
1095 965 38
1096 965 38
1097 965 24
1098 965 24
1103 965 38
1104 965 38
1108 965 24
967 966 56
968 966 56
969 966 34
970 966 34
971 966 34
972 966 24
977 966 24
978 966 24
979 966 36
980 966 36
981 966 36
987 966 22
988 966 22
989 966 22
1042 966 22
1043 966 22
1044 966 22
1045 966 34
1046 966 34
1047 966 34
1072 966 22
1073 966 22
1074 966 22
1079 966 38
1080 966 38
1081 966 38
1082 966 26
1083 966 26
1084 966 26
1085 966 26
1089 966 56
1090 966 56
1091 966 56
1092 966 36
1093 966 36
1094 966 36
1095 966 38
1096 966 38
1097 966 24
1098 966 24
1103 966 38
1104 966 38
1108 966 24
968 967 56
969 967 34
970 967 34
971 967 34
972 967 24
977 967 24
978 967 24
979 967 36
980 967 36
981 967 36
987 967 22
988 967 22
989 967 22
1042 967 22
1043 967 22
1044 967 22
1045 967 34
1046 967 34
1047 967 34
1072 967 22
1073 967 22
1074 967 22
1079 967 38
1080 967 38
1081 967 38
1082 967 26
1083 967 26
1084 967 26
1085 967 26
1089 967 56
1090 967 56
1091 967 56
1092 967 36
1093 967 36
1094 967 36
1095 967 38
1096 967 38
1097 967 24
1098 967 24
1103 967 38
1104 967 38
1108 967 24
969 968 34
970 968 34
971 968 34
972 968 24
977 968 24
978 968 24
979 968 36
980 968 36
981 968 36
987 968 22
988 968 22
989 968 22
1042 968 22
1043 968 22
1044 968 22
1045 968 34
1046 968 34
1047 968 34
1072 968 22
1073 968 22
1074 968 22
1079 968 38
1080 968 38
1081 968 38
1082 968 26
1083 968 26
1084 968 26
1085 968 26
1089 968 56
1090 968 56
1091 968 56
1092 968 36
1093 968 36
1094 968 36
1095 968 38
1096 968 38
1097 968 24
1098 968 24
1103 968 38
1104 968 38
1108 968 24
970 969 46
971 969 46
979 969 22
980 969 22
981 969 22
987 969 22
988 969 22
989 969 22
1010 969 22
1011 969 22
1012 969 22
1013 969 22
1014 969 22
1015 969 22
1039 969 22
1040 969 22
1041 969 22
1042 969 34
1043 969 34
1044 969 34
1045 969 46
1046 969 46
1047 969 46
1050 969 22
1051 969 22
1052 969 22
1072 969 22
1073 969 22
1074 969 22
1079 969 22
1080 969 22
1081 969 22
1089 969 34
1090 969 34
1091 969 34
1092 969 22
1093 969 22
1094 969 22
971 970 46
979 970 22
980 970 22
981 970 22
987 970 22
988 970 22
989 970 22
1010 970 22
1011 970 22
1012 970 22
1013 970 22
1014 970 22
1015 970 22
1039 970 22
1040 970 22
1041 970 22
1042 970 34
1043 970 34
1044 970 34
1045 970 46
1046 970 46
1047 970 46
1050 970 22
1051 970 22
1052 970 22
1072 970 22
1073 970 22
1074 970 22
1079 970 22
1080 970 22
1081 970 22
1089 970 34
1090 970 34
1091 970 34
1092 970 22
1093 970 22
1094 970 22
979 971 22
980 971 22
981 971 22
987 971 22
988 971 22
989 971 22
1010 971 22
1011 971 22
1012 971 22
1013 971 22
1014 971 22
1015 971 22
1039 971 22
1040 971 22
1041 971 22
1042 971 34
1043 971 34
1044 971 34
1045 971 46
1046 971 46
1047 971 46
1050 971 22
1051 971 22
1052 971 22
1072 971 22
1073 971 22
1074 971 22
1079 971 22
1080 971 22
1081 971 22
1089 971 34
1090 971 34
1091 971 34
1092 971 22
1093 971 22
1094 971 22
977 972 24
978 972 24
979 972 24
980 972 24
981 972 24
1089 972 24
1090 972 24
1091 972 24
1092 972 24
1093 972 24
1094 972 24
1095 972 24
1096 972 24
1097 972 24
1098 972 24
1103 972 24
1104 972 24
1108 972 24
978 977 24
979 977 24
980 977 24
981 977 24
1089 977 24
1090 977 24
1091 977 24
1092 977 24
1093 977 24
1094 977 24
1095 977 24
1096 977 24
1097 977 24
1098 977 24
1103 977 24
1104 977 24
1108 977 24
979 978 24
980 978 24
981 978 24
1089 978 24
1090 978 24
1091 978 24
1092 978 24
1093 978 24
1094 978 24
1095 978 24
1096 978 24
1097 978 24
1098 978 24
1103 978 24
1104 978 24
1108 978 24
980 979 36
981 979 36
987 979 22
988 979 22
989 979 22
1045 979 22
1046 979 22
1047 979 22
1072 979 22
1073 979 22
1074 979 22
1089 979 36
1090 979 36
1091 979 36
1092 979 36
1093 979 36
1094 979 36
1095 979 24
1096 979 24
1097 979 24
1098 979 24
1103 979 24
1104 979 24
1108 979 24
981 980 36
987 980 22
988 980 22
989 980 22
1045 980 22
1046 980 22
1047 980 22
1072 980 22
1073 980 22
1074 980 22
1089 980 36
1090 980 36
1091 980 36
1092 980 36
1093 980 36
1094 980 36
1095 980 24
1096 980 24
1097 980 24
1098 980 24
1103 980 24
1104 980 24
1108 980 24
987 981 22
988 981 22
989 981 22
1045 981 22
1046 981 22
1047 981 22
1072 981 22
1073 981 22
1074 981 22
1089 981 36
1090 981 36
1091 981 36
1092 981 36
1093 981 36
1094 981 36
1095 981 24
1096 981 24
1097 981 24
1098 981 24
1103 981 24
1104 981 24
1108 981 24
988 987 22
989 987 22
1045 987 22
1046 987 22
1047 987 22
1072 987 22
1073 987 22
1074 987 22
1089 987 22
1090 987 22
1091 987 22
1092 987 22
1093 987 22
1094 987 22
989 988 22
1045 988 22
1046 988 22
1047 988 22
1072 988 22
1073 988 22
1074 988 22
1089 988 22
1090 988 22
1091 988 22
1092 988 22
1093 988 22
1094 988 22
1045 989 22
1046 989 22
1047 989 22
1072 989 22
1073 989 22
1074 989 22
1089 989 22
1090 989 22
1091 989 22
1092 989 22
1093 989 22
1094 989 22
1001 1000 38
1006 1000 26
1007 1000 26
1008 1000 38
1009 1000 38
1010 1000 26
1011 1000 26
1012 1000 26
1013 1000 38
1014 1000 38
1015 1000 38
1016 1000 24
1017 1000 24
1018 1000 24
1019 1000 24
1020 1000 24
1021 1000 24
1026 1000 26
1027 1000 26
1032 1000 26
1033 1000 26
1034 1000 26
1035 1000 26
1039 1000 26
1040 1000 26
1041 1000 26
1048 1000 38
1049 1000 38
1050 1000 38
1051 1000 38
1052 1000 38
1053 1000 38
1054 1000 38
1058 1000 24
1059 1000 24
1060 1000 24
1061 1000 24
1062 1000 24
1063 1000 24
1006 1001 26
1007 1001 26
1008 1001 38
1009 1001 38
1010 1001 26
1011 1001 26
1012 1001 26
1013 1001 38
1014 1001 38
1015 1001 38
1016 1001 24
1017 1001 24
1018 1001 24
1019 1001 24
1020 1001 24
1021 1001 24
1026 1001 26
1027 1001 26
1032 1001 26
1033 1001 26
1034 1001 26
1035 1001 26
1039 1001 26
1040 1001 26
1041 1001 26
1048 1001 38
1049 1001 38
1050 1001 38
1051 1001 38
1052 1001 38
1053 1001 38
1054 1001 38
1058 1001 24
1059 1001 24
1060 1001 24
1061 1001 24
1062 1001 24
1063 1001 24
1007 1006 40
1008 1006 26
1009 1006 26
1010 1006 40
1011 1006 40
1012 1006 40
1013 1006 26
1014 1006 26
1015 1006 26
1026 1006 40
1027 1006 40
1032 1006 40
1033 1006 40
1034 1006 40
1035 1006 40
1039 1006 40
1040 1006 40
1041 1006 40
1048 1006 26
1049 1006 26
1050 1006 26
1051 1006 26
1052 1006 26
1053 1006 26
1054 1006 26
1008 1007 26
1009 1007 26
1010 1007 40
1011 1007 40
1012 1007 40
1013 1007 26
1014 1007 26
1015 1007 26
1026 1007 40
1027 1007 40
1032 1007 40
1033 1007 40
1034 1007 40
1035 1007 40
1039 1007 40
1040 1007 40
1041 1007 40
1048 1007 26
1049 1007 26
1050 1007 26
1051 1007 26
1052 1007 26
1053 1007 26
1054 1007 26
1009 1008 38
1010 1008 26
1011 1008 26
1012 1008 26
1013 1008 38
1014 1008 38
1015 1008 38
1016 1008 24
1017 1008 24
1018 1008 24
1019 1008 24
1020 1008 24
1021 1008 24
1026 1008 26
1027 1008 26
1032 1008 26
1033 1008 26
1034 1008 26
1035 1008 26
1039 1008 26
1040 1008 26
1041 1008 26
1048 1008 38
1049 1008 38
1050 1008 38
1051 1008 38
1052 1008 38
1053 1008 38
1054 1008 38
1058 1008 24
1059 1008 24
1060 1008 24
1061 1008 24
1062 1008 24
1063 1008 24
1010 1009 26
1011 1009 26
1012 1009 26
1013 1009 38
1014 1009 38
1015 1009 38
1016 1009 24
1017 1009 24
1018 1009 24
1019 1009 24
1020 1009 24
1021 1009 24
1026 1009 26
1027 1009 26
1032 1009 26
1033 1009 26
1034 1009 26
1035 1009 26
1039 1009 26
1040 1009 26
1041 1009 26
1048 1009 38
1049 1009 38
1050 1009 38
1051 1009 38
1052 1009 38
1053 1009 38
1054 1009 38
1058 1009 24
1059 1009 24
1060 1009 24
1061 1009 24
1062 1009 24
1063 1009 24
1011 1010 58
1012 1010 58
1013 1010 38
1014 1010 38
1015 1010 38
1026 1010 40
1027 1010 40
1032 1010 40
1033 1010 40
1034 1010 40
1035 1010 40
1039 1010 58
1040 1010 58
1041 1010 58
1042 1010 34
1043 1010 34
1044 1010 34
1045 1010 22
1046 1010 22
1047 1010 22
1048 1010 26
1049 1010 26
1050 1010 38
1051 1010 38
1052 1010 38
1053 1010 26
1054 1010 26
1012 1011 58
1013 1011 38
1014 1011 38
1015 1011 38
1026 1011 40
1027 1011 40
1032 1011 40
1033 1011 40
1034 1011 40
1035 1011 40
1039 1011 58
1040 1011 58
1041 1011 58
1042 1011 34
1043 1011 34
1044 1011 34
1045 1011 22
1046 1011 22
1047 1011 22
1048 1011 26
1049 1011 26
1050 1011 38
1051 1011 38
1052 1011 38
1053 1011 26
1054 1011 26
1013 1012 38
1014 1012 38
1015 1012 38
1026 1012 40
1027 1012 40
1032 1012 40
1033 1012 40
1034 1012 40
1035 1012 40
1039 1012 58
1040 1012 58
1041 1012 58
1042 1012 34
1043 1012 34
1044 1012 34
1045 1012 22
1046 1012 22
1047 1012 22
1048 1012 26
1049 1012 26
1050 1012 38
1051 1012 38
1052 1012 38
1053 1012 26
1054 1012 26
1014 1013 50
1015 1013 50
1016 1013 24
1017 1013 24
1018 1013 24
1019 1013 24
1020 1013 24
1021 1013 24
1026 1013 26
1027 1013 26
1032 1013 26
1033 1013 26
1034 1013 26
1035 1013 26
1039 1013 38
1040 1013 38
1041 1013 38
1042 1013 22
1043 1013 22
1044 1013 22
1045 1013 22
1046 1013 22
1047 1013 22
1048 1013 38
1049 1013 38
1050 1013 50
1051 1013 50
1052 1013 50
1053 1013 38
1054 1013 38
1058 1013 24
1059 1013 24
1060 1013 24
1061 1013 24
1062 1013 24
1063 1013 24
1015 1014 50
1016 1014 24
1017 1014 24
1018 1014 24
1019 1014 24
1020 1014 24
1021 1014 24
1026 1014 26
1027 1014 26
1032 1014 26
1033 1014 26
1034 1014 26
1035 1014 26
1039 1014 38
1040 1014 38
1041 1014 38
1042 1014 22
1043 1014 22
1044 1014 22
1045 1014 22
1046 1014 22
1047 1014 22
1048 1014 38
1049 1014 38
1050 1014 50
1051 1014 50
1052 1014 50
1053 1014 38
1054 1014 38
1058 1014 24
1059 1014 24
1060 1014 24
1061 1014 24
1062 1014 24
1063 1014 24
1016 1015 24
1017 1015 24
1018 1015 24
1019 1015 24
1020 1015 24
1021 1015 24
1026 1015 26
1027 1015 26
1032 1015 26
1033 1015 26
1034 1015 26
1035 1015 26
1039 1015 38
1040 1015 38
1041 1015 38
1042 1015 22
1043 1015 22
1044 1015 22
1045 1015 22
1046 1015 22
1047 1015 22
1048 1015 38
1049 1015 38
1050 1015 50
1051 1015 50
1052 1015 50
1053 1015 38
1054 1015 38
1058 1015 24
1059 1015 24
1060 1015 24
1061 1015 24
1062 1015 24
1063 1015 24
1017 1016 24
1018 1016 24
1019 1016 24
1020 1016 24
1021 1016 24
1048 1016 24
1049 1016 24
1050 1016 24
1051 1016 24
1052 1016 24
1053 1016 24
1054 1016 24
1058 1016 24
1059 1016 24
1060 1016 24
1061 1016 24
1062 1016 24
1063 1016 24
1018 1017 24
1019 1017 24
1020 1017 24
1021 1017 24
1048 1017 24
1049 1017 24
1050 1017 24
1051 1017 24
1052 1017 24
1053 1017 24
1054 1017 24
1058 1017 24
1059 1017 24
1060 1017 24
1061 1017 24
1062 1017 24
1063 1017 24
1019 1018 24
1020 1018 24
1021 1018 24
1048 1018 24
1049 1018 24
1050 1018 24
1051 1018 24
1052 1018 24
1053 1018 24
1054 1018 24
1058 1018 24
1059 1018 24
1060 1018 24
1061 1018 24
1062 1018 24
1063 1018 24
1020 1019 24
1021 1019 24
1048 1019 24
1049 1019 24
1050 1019 24
1051 1019 24
1052 1019 24
1053 1019 24
1054 1019 24
1058 1019 24
1059 1019 24
1060 1019 24
1061 1019 24
1062 1019 24
1063 1019 24
1021 1020 24
1048 1020 24
1049 1020 24
1050 1020 24
1051 1020 24
1052 1020 24
1053 1020 24
1054 1020 24
1058 1020 24
1059 1020 24
1060 1020 24
1061 1020 24
1062 1020 24
1063 1020 24
1048 1021 24
1049 1021 24
1050 1021 24
1051 1021 24
1052 1021 24
1053 1021 24
1054 1021 24
1058 1021 24
1059 1021 24
1060 1021 24
1061 1021 24
1062 1021 24
1063 1021 24
1027 1026 40
1032 1026 40
1033 1026 40
1034 1026 40
1035 1026 40
1039 1026 40
1040 1026 40
1041 1026 40
1048 1026 26
1049 1026 26
1050 1026 26
1051 1026 26
1052 1026 26
1053 1026 26
1054 1026 26
1032 1027 40
1033 1027 40
1034 1027 40
1035 1027 40
1039 1027 40
1040 1027 40
1041 1027 40
1048 1027 26
1049 1027 26
1050 1027 26
1051 1027 26
1052 1027 26
1053 1027 26
1054 1027 26
1033 1032 61
1034 1032 61
1035 1032 61
1039 1032 61
1040 1032 61
1041 1032 61
1048 1032 40
1049 1032 40
1050 1032 40
1051 1032 40
1052 1032 40
1053 1032 40
1054 1032 40
1148 1032 26
1149 1032 26
1150 1032 26
1151 1032 26
1152 1032 26
1153 1032 26
1154 1032 26
1159 1032 40
1160 1032 40
1161 1032 40
1162 1032 40
1163 1032 40
1164 1032 40
1165 1032 40
1170 1032 26
1171 1032 26
1172 1032 26
1173 1032 26
1174 1032 26
1175 1032 26
1176 1032 26
1034 1033 61
1035 1033 61
1039 1033 61
1040 1033 61
1041 1033 61
1048 1033 40
1049 1033 40
1050 1033 40
1051 1033 40
1052 1033 40
1053 1033 40
1054 1033 40
1148 1033 26
1149 1033 26
1150 1033 26
1151 1033 26
1152 1033 26
1153 1033 26
1154 1033 26
1159 1033 40
1160 1033 40
1161 1033 40
1162 1033 40
1163 1033 40
1164 1033 40
1165 1033 40
1170 1033 26
1171 1033 26
1172 1033 26
1173 1033 26
1174 1033 26
1175 1033 26
1176 1033 26
1035 1034 61
1039 1034 61
1040 1034 61
1041 1034 61
1048 1034 40
1049 1034 40
1050 1034 40
1051 1034 40
1052 1034 40
1053 1034 40
1054 1034 40
1148 1034 26
1149 1034 26
1150 1034 26
1151 1034 26
1152 1034 26
1153 1034 26
1154 1034 26
1159 1034 40
1160 1034 40
1161 1034 40
1162 1034 40
1163 1034 40
1164 1034 40
1165 1034 40
1170 1034 26
1171 1034 26
1172 1034 26
1173 1034 26
1174 1034 26
1175 1034 26
1176 1034 26
1039 1035 61
1040 1035 61
1041 1035 61
1048 1035 40
1049 1035 40
1050 1035 40
1051 1035 40
1052 1035 40
1053 1035 40
1054 1035 40
1148 1035 26
1149 1035 26
1150 1035 26
1151 1035 26
1152 1035 26
1153 1035 26
1154 1035 26
1159 1035 40
1160 1035 40
1161 1035 40
1162 1035 40
1163 1035 40
1164 1035 40
1165 1035 40
1170 1035 26
1171 1035 26
1172 1035 26
1173 1035 26
1174 1035 26
1175 1035 26
1176 1035 26
1040 1039 88
1041 1039 88
1042 1039 52
1043 1039 52
1044 1039 52
1045 1039 34
1046 1039 34
1047 1039 34
1048 1039 40
1049 1039 40
1050 1039 58
1051 1039 58
1052 1039 58
1053 1039 40
1054 1039 40
1116 1039 22
1117 1039 22
1118 1039 22
1119 1039 34
1120 1039 34
1121 1039 34
1122 1039 22
1123 1039 22
1124 1039 22
1148 1039 26
1149 1039 26
1150 1039 38
1151 1039 38
1152 1039 38
1153 1039 26
1154 1039 26
1159 1039 40
1160 1039 40
1161 1039 58
1162 1039 58
1163 1039 58
1164 1039 40
1165 1039 40
1170 1039 26
1171 1039 26
1172 1039 38
1173 1039 38
1174 1039 38
1175 1039 26
1176 1039 26
1041 1040 88
1042 1040 52
1043 1040 52
1044 1040 52
1045 1040 34
1046 1040 34
1047 1040 34
1048 1040 40
1049 1040 40
1050 1040 58
1051 1040 58
1052 1040 58
1053 1040 40
1054 1040 40
1116 1040 22
1117 1040 22
1118 1040 22
1119 1040 34
1120 1040 34
1121 1040 34
1122 1040 22
1123 1040 22
1124 1040 22
1148 1040 26
1149 1040 26
1150 1040 38
1151 1040 38
1152 1040 38
1153 1040 26
1154 1040 26
1159 1040 40
1160 1040 40
1161 1040 58
1162 1040 58
1163 1040 58
1164 1040 40
1165 1040 40
1170 1040 26
1171 1040 26
1172 1040 38
1173 1040 38
1174 1040 38
1175 1040 26
1176 1040 26
1042 1041 52
1043 1041 52
1044 1041 52
1045 1041 34
1046 1041 34
1047 1041 34
1048 1041 40
1049 1041 40
1050 1041 58
1051 1041 58
1052 1041 58
1053 1041 40
1054 1041 40
1116 1041 22
1117 1041 22
1118 1041 22
1119 1041 34
1120 1041 34
1121 1041 34
1122 1041 22
1123 1041 22
1124 1041 22
1148 1041 26
1149 1041 26
1150 1041 38
1151 1041 38
1152 1041 38
1153 1041 26
1154 1041 26
1159 1041 40
1160 1041 40
1161 1041 58
1162 1041 58
1163 1041 58
1164 1041 40
1165 1041 40
1170 1041 26
1171 1041 26
1172 1041 38
1173 1041 38
1174 1041 38
1175 1041 26
1176 1041 26
1043 1042 79
1044 1042 79
1045 1042 52
1046 1042 52
1047 1042 52
1050 1042 34
1051 1042 34
1052 1042 34
1079 1042 52
1080 1042 52
1081 1042 52
1089 1042 34
1090 1042 34
1091 1042 34
1116 1042 34
1117 1042 34
1118 1042 34
1119 1042 52
1120 1042 52
1121 1042 52
1122 1042 34
1123 1042 34
1124 1042 34
1150 1042 22
1151 1042 22
1152 1042 22
1161 1042 34
1162 1042 34
1163 1042 34
1172 1042 22
1173 1042 22
1174 1042 22
1217 1042 22
1218 1042 22
1219 1042 22
1228 1042 34
1229 1042 34
1230 1042 34
1239 1042 22
1240 1042 22
1241 1042 22
1044 1043 79
1045 1043 52
1046 1043 52
1047 1043 52
1050 1043 34
1051 1043 34
1052 1043 34
1079 1043 52
1080 1043 52
1081 1043 52
1089 1043 34
1090 1043 34
1091 1043 34
1116 1043 34
1117 1043 34
1118 1043 34
1119 1043 52
1120 1043 52
1121 1043 52
1122 1043 34
1123 1043 34
1124 1043 34
1150 1043 22
1151 1043 22
1152 1043 22
1161 1043 34
1162 1043 34
1163 1043 34
1172 1043 22
1173 1043 22
1174 1043 22
1217 1043 22
1218 1043 22
1219 1043 22
1228 1043 34
1229 1043 34
1230 1043 34
1239 1043 22
1240 1043 22
1241 1043 22
1045 1044 52
1046 1044 52
1047 1044 52
1050 1044 34
1051 1044 34
1052 1044 34
1079 1044 52
1080 1044 52
1081 1044 52
1089 1044 34
1090 1044 34
1091 1044 34
1116 1044 34
1117 1044 34
1118 1044 34
1119 1044 52
1120 1044 52
1121 1044 52
1122 1044 34
1123 1044 34
1124 1044 34
1150 1044 22
1151 1044 22
1152 1044 22
1161 1044 34
1162 1044 34
1163 1044 34
1172 1044 22
1173 1044 22
1174 1044 22
1217 1044 22
1218 1044 22
1219 1044 22
1228 1044 34
1229 1044 34
1230 1044 34
1239 1044 22
1240 1044 22
1241 1044 22
1046 1045 70
1047 1045 70
1050 1045 34
1051 1045 34
1052 1045 34
1072 1045 34
1073 1045 34
1074 1045 34
1079 1045 34
1080 1045 34
1081 1045 34
1089 1045 52
1090 1045 52
1091 1045 52
1092 1045 34
1093 1045 34
1094 1045 34
1119 1045 34
1120 1045 34
1121 1045 34
1122 1045 46
1123 1045 46
1124 1045 46
1125 1045 25
1126 1045 25
1127 1045 25
1150 1045 25
1151 1045 25
1152 1045 25
1161 1045 22
1162 1045 22
1163 1045 22
1228 1045 22
1229 1045 22
1230 1045 22
1239 1045 34
1240 1045 34
1241 1045 34
1242 1045 22
1243 1045 22
1244 1045 22
1047 1046 70
1050 1046 34
1051 1046 34
1052 1046 34
1072 1046 34
1073 1046 34
1074 1046 34
1079 1046 34
1080 1046 34
1081 1046 34
1089 1046 52
1090 1046 52
1091 1046 52
1092 1046 34
1093 1046 34
1094 1046 34
1119 1046 34
1120 1046 34
1121 1046 34
1122 1046 46
1123 1046 46
1124 1046 46
1125 1046 25
1126 1046 25
1127 1046 25
1150 1046 25
1151 1046 25
1152 1046 25
1161 1046 22
1162 1046 22
1163 1046 22
1228 1046 22
1229 1046 22
1230 1046 22
1239 1046 34
1240 1046 34
1241 1046 34
1242 1046 22
1243 1046 22
1244 1046 22
1050 1047 34
1051 1047 34
1052 1047 34
1072 1047 34
1073 1047 34
1074 1047 34
1079 1047 34
1080 1047 34
1081 1047 34
1089 1047 52
1090 1047 52
1091 1047 52
1092 1047 34
1093 1047 34
1094 1047 34
1119 1047 34
1120 1047 34
1121 1047 34
1122 1047 46
1123 1047 46
1124 1047 46
1125 1047 25
1126 1047 25
1127 1047 25
1150 1047 25
1151 1047 25
1152 1047 25
1161 1047 22
1162 1047 22
1163 1047 22
1228 1047 22
1229 1047 22
1230 1047 22
1239 1047 34
1240 1047 34
1241 1047 34
1242 1047 22
1243 1047 22
1244 1047 22
1049 1048 58
1050 1048 58
1051 1048 58
1052 1048 58
1053 1048 58
1054 1048 58
1058 1048 37
1059 1048 37
1060 1048 37
1061 1048 37
1062 1048 37
1063 1048 37
1138 1048 24
1139 1048 24
1140 1048 24
1141 1048 24
1142 1048 24
1143 1048 24
1148 1048 38
1149 1048 38
1150 1048 38
1151 1048 38
1152 1048 38
1153 1048 38
1154 1048 38
1159 1048 26
1160 1048 26
1161 1048 26
1162 1048 26
1163 1048 26
1164 1048 26
1165 1048 26
1050 1049 58
1051 1049 58
1052 1049 58
1053 1049 58
1054 1049 58
1058 1049 37
1059 1049 37
1060 1049 37
1061 1049 37
1062 1049 37
1063 1049 37
1138 1049 24
1139 1049 24
1140 1049 24
1141 1049 24
1142 1049 24
1143 1049 24
1148 1049 38
1149 1049 38
1150 1049 38
1151 1049 38
1152 1049 38
1153 1049 38
1154 1049 38
1159 1049 26
1160 1049 26
1161 1049 26
1162 1049 26
1163 1049 26
1164 1049 26
1165 1049 26
1051 1050 76
1052 1050 76
1053 1050 58
1054 1050 58
1058 1050 37
1059 1050 37
1060 1050 37
1061 1050 37
1062 1050 37
1063 1050 37
1119 1050 22
1120 1050 22
1121 1050 22
1122 1050 25
1123 1050 25
1124 1050 25
1138 1050 24
1139 1050 24
1140 1050 27
1141 1050 27
1142 1050 27
1143 1050 24
1148 1050 38
1149 1050 38
1150 1050 50
1151 1050 50
1152 1050 50
1153 1050 38
1154 1050 38
1159 1050 26
1160 1050 26
1161 1050 38
1162 1050 38
1163 1050 38
1164 1050 26
1165 1050 26
1052 1051 76
1053 1051 58
1054 1051 58
1058 1051 37
1059 1051 37
1060 1051 37
1061 1051 37
1062 1051 37
1063 1051 37
1119 1051 22
1120 1051 22
1121 1051 22
1122 1051 25
1123 1051 25
1124 1051 25
1138 1051 24
1139 1051 24
1140 1051 27
1141 1051 27
1142 1051 27
1143 1051 24
1148 1051 38
1149 1051 38
1150 1051 50
1151 1051 50
1152 1051 50
1153 1051 38
1154 1051 38
1159 1051 26
1160 1051 26
1161 1051 38
1162 1051 38
1163 1051 38
1164 1051 26
1165 1051 26
1053 1052 58
1054 1052 58
1058 1052 37
1059 1052 37
1060 1052 37
1061 1052 37
1062 1052 37
1063 1052 37
1119 1052 22
1120 1052 22
1121 1052 22
1122 1052 25
1123 1052 25
1124 1052 25
1138 1052 24
1139 1052 24
1140 1052 27
1141 1052 27
1142 1052 27
1143 1052 24
1148 1052 38
1149 1052 38
1150 1052 50
1151 1052 50
1152 1052 50
1153 1052 38
1154 1052 38
1159 1052 26
1160 1052 26
1161 1052 38
1162 1052 38
1163 1052 38
1164 1052 26
1165 1052 26
1054 1053 58
1058 1053 37
1059 1053 37
1060 1053 37
1061 1053 37
1062 1053 37
1063 1053 37
1138 1053 24
1139 1053 24
1140 1053 24
1141 1053 24
1142 1053 24
1143 1053 24
1148 1053 38
1149 1053 38
1150 1053 38
1151 1053 38
1152 1053 38
1153 1053 38
1154 1053 38
1159 1053 26
1160 1053 26
1161 1053 26
1162 1053 26
1163 1053 26
1164 1053 26
1165 1053 26
1058 1054 37
1059 1054 37
1060 1054 37
1061 1054 37
1062 1054 37
1063 1054 37
1138 1054 24
1139 1054 24
1140 1054 24
1141 1054 24
1142 1054 24
1143 1054 24
1148 1054 38
1149 1054 38
1150 1054 38
1151 1054 38
1152 1054 38
1153 1054 38
1154 1054 38
1159 1054 26
1160 1054 26
1161 1054 26
1162 1054 26
1163 1054 26
1164 1054 26
1165 1054 26
1059 1058 37
1060 1058 37
1061 1058 37
1062 1058 37
1063 1058 37
1138 1058 24
1139 1058 24
1140 1058 24
1141 1058 24
1142 1058 24
1143 1058 24
1148 1058 24
1149 1058 24
1150 1058 24
1151 1058 24
1152 1058 24
1153 1058 24
1154 1058 24
1060 1059 37
1061 1059 37
1062 1059 37
1063 1059 37
1138 1059 24
1139 1059 24
1140 1059 24
1141 1059 24
1142 1059 24
1143 1059 24
1148 1059 24
1149 1059 24
1150 1059 24
1151 1059 24
1152 1059 24
1153 1059 24
1154 1059 24
1061 1060 37
1062 1060 37
1063 1060 37
1138 1060 24
1139 1060 24
1140 1060 24
1141 1060 24
1142 1060 24
1143 1060 24
1148 1060 24
1149 1060 24
1150 1060 24
1151 1060 24
1152 1060 24
1153 1060 24
1154 1060 24
1062 1061 37
1063 1061 37
1138 1061 24
1139 1061 24
1140 1061 24
1141 1061 24
1142 1061 24
1143 1061 24
1148 1061 24
1149 1061 24
1150 1061 24
1151 1061 24
1152 1061 24
1153 1061 24
1154 1061 24
1063 1062 37
1138 1062 24
1139 1062 24
1140 1062 24
1141 1062 24
1142 1062 24
1143 1062 24
1148 1062 24
1149 1062 24
1150 1062 24
1151 1062 24
1152 1062 24
1153 1062 24
1154 1062 24
1138 1063 24
1139 1063 24
1140 1063 24
1141 1063 24
1142 1063 24
1143 1063 24
1148 1063 24
1149 1063 24
1150 1063 24
1151 1063 24
1152 1063 24
1153 1063 24
1154 1063 24
1073 1072 34
1074 1072 34
1089 1072 34
1090 1072 34
1091 1072 34
1092 1072 34
1093 1072 34
1094 1072 34
1122 1072 22
1123 1072 22
1124 1072 22
1125 1072 22
1126 1072 22
1127 1072 22
1239 1072 22
1240 1072 22
1241 1072 22
1242 1072 22
1243 1072 22
1244 1072 22
1074 1073 34
1089 1073 34
1090 1073 34
1091 1073 34
1092 1073 34
1093 1073 34
1094 1073 34
1122 1073 22
1123 1073 22
1124 1073 22
1125 1073 22
1126 1073 22
1127 1073 22
1239 1073 22
1240 1073 22
1241 1073 22
1242 1073 22
1243 1073 22
1244 1073 22
1089 1074 34
1090 1074 34
1091 1074 34
1092 1074 34
1093 1074 34
1094 1074 34
1122 1074 22
1123 1074 22
1124 1074 22
1125 1074 22
1126 1074 22
1127 1074 22
1239 1074 22
1240 1074 22
1241 1074 22
1242 1074 22
1243 1074 22
1244 1074 22
1080 1079 88
1081 1079 88
1082 1079 61
1083 1079 61
1084 1079 61
1085 1079 61
1089 1079 58
1090 1079 58
1091 1079 58
1095 1079 40
1096 1079 40
1103 1079 40
1104 1079 40
1116 1079 22
1117 1079 22
1118 1079 22
1119 1079 34
1120 1079 34
1121 1079 34
1122 1079 22
1123 1079 22
1124 1079 22
1217 1079 38
1218 1079 38
1219 1079 38
1220 1079 26
1221 1079 25
1222 1079 26
1223 1079 26
1228 1079 58
1229 1079 57
1230 1079 58
1231 1079 40
1232 1079 40
1233 1079 40
1234 1079 40
1239 1079 38
1240 1079 38
1241 1079 38
1245 1079 26
1246 1079 26
1249 1079 26
1250 1079 26
1081 1080 88
1082 1080 61
1083 1080 61
1084 1080 61
1085 1080 61
1089 1080 58
1090 1080 58
1091 1080 58
1095 1080 40
1096 1080 40
1103 1080 40
1104 1080 40
1116 1080 22
1117 1080 22
1118 1080 22
1119 1080 34
1120 1080 34
1121 1080 34
1122 1080 22
1123 1080 22
1124 1080 22
1217 1080 38
1218 1080 38
1219 1080 38
1220 1080 26
1221 1080 25
1222 1080 26
1223 1080 26
1228 1080 58
1229 1080 57
1230 1080 58
1231 1080 40
1232 1080 40
1233 1080 40
1234 1080 40
1239 1080 38
1240 1080 38
1241 1080 38
1245 1080 26
1246 1080 26
1249 1080 26
1250 1080 26
1082 1081 61
1083 1081 61
1084 1081 61
1085 1081 61
1089 1081 58
1090 1081 58
1091 1081 58
1095 1081 40
1096 1081 40
1103 1081 40
1104 1081 40
1116 1081 22
1117 1081 22
1118 1081 22
1119 1081 34
1120 1081 34
1121 1081 34
1122 1081 22
1123 1081 22
1124 1081 22
1217 1081 38
1218 1081 38
1219 1081 38
1220 1081 26
1221 1081 25
1222 1081 26
1223 1081 26
1228 1081 58
1229 1081 57
1230 1081 58
1231 1081 40
1232 1081 40
1233 1081 40
1234 1081 40
1239 1081 38
1240 1081 38
1241 1081 38
1245 1081 26
1246 1081 26
1249 1081 26
1250 1081 26
1083 1082 61
1084 1082 61
1085 1082 61
1089 1082 40
1090 1082 40
1091 1082 40
1095 1082 40
1096 1082 40
1103 1082 40
1104 1082 40
1217 1082 26
1218 1082 26
1219 1082 26
1220 1082 26
1221 1082 25
1222 1082 26
1223 1082 26
1228 1082 40
1229 1082 39
1230 1082 40
1231 1082 40
1232 1082 40
1233 1082 40
1234 1082 40
1239 1082 26
1240 1082 26
1241 1082 26
1245 1082 26
1246 1082 26
1249 1082 26
1250 1082 26
1084 1083 61
1085 1083 61
1089 1083 40
1090 1083 40
1091 1083 40
1095 1083 40
1096 1083 40
1103 1083 40
1104 1083 40
1217 1083 26
1218 1083 26
1219 1083 26
1220 1083 26
1221 1083 25
1222 1083 26
1223 1083 26
1228 1083 40
1229 1083 39
1230 1083 40
1231 1083 40
1232 1083 40
1233 1083 40
1234 1083 40
1239 1083 26
1240 1083 26
1241 1083 26
1245 1083 26
1246 1083 26
1249 1083 26
1250 1083 26
1085 1084 61
1089 1084 40
1090 1084 40
1091 1084 40
1095 1084 40
1096 1084 40
1103 1084 40
1104 1084 40
1217 1084 26
1218 1084 26
1219 1084 26
1220 1084 26
1221 1084 25
1222 1084 26
1223 1084 26
1228 1084 40
1229 1084 39
1230 1084 40
1231 1084 40
1232 1084 40
1233 1084 40
1234 1084 40
1239 1084 26
1240 1084 26
1241 1084 26
1245 1084 26
1246 1084 26
1249 1084 26
1250 1084 26
1089 1085 40
1090 1085 40
1091 1085 40
1095 1085 40
1096 1085 40
1103 1085 40
1104 1085 40
1217 1085 26
1218 1085 26
1219 1085 26
1220 1085 26
1221 1085 25
1222 1085 26
1223 1085 26
1228 1085 40
1229 1085 39
1230 1085 40
1231 1085 40
1232 1085 40
1233 1085 40
1234 1085 40
1239 1085 26
1240 1085 26
1241 1085 26
1245 1085 26
1246 1085 26
1249 1085 26
1250 1085 26
1090 1089 85
1091 1089 85
1092 1089 55
1093 1089 55
1094 1089 55
1095 1089 58
1096 1089 58
1097 1089 37
1098 1089 37
1103 1089 58
1104 1089 58
1108 1089 37
1119 1089 22
1120 1089 22
1121 1089 22
1122 1089 34
1123 1089 34
1124 1089 34
1125 1089 22
1126 1089 22
1127 1089 22
1228 1089 38
1229 1089 38
1230 1089 38
1231 1089 26
1232 1089 26
1233 1089 26
1234 1089 26
1239 1089 56
1240 1089 56
1241 1089 56
1242 1089 36
1243 1089 36
1244 1089 36
1245 1089 38
1246 1089 38
1247 1089 24
1248 1089 24
1249 1089 38
1250 1089 38
1255 1089 24
1091 1090 85
1092 1090 55
1093 1090 55
1094 1090 55
1095 1090 58
1096 1090 58
1097 1090 37
1098 1090 37
1103 1090 58
1104 1090 58
1108 1090 37
1119 1090 22
1120 1090 22
1121 1090 22
1122 1090 34
1123 1090 34
1124 1090 34
1125 1090 22
1126 1090 22
1127 1090 22
1228 1090 38
1229 1090 38
1230 1090 38
1231 1090 26
1232 1090 26
1233 1090 26
1234 1090 26
1239 1090 56
1240 1090 56
1241 1090 56
1242 1090 36
1243 1090 36
1244 1090 36
1245 1090 38
1246 1090 38
1247 1090 24
1248 1090 24
1249 1090 38
1250 1090 38
1255 1090 24
1092 1091 55
1093 1091 55
1094 1091 55
1095 1091 58
1096 1091 58
1097 1091 37
1098 1091 37
1103 1091 58
1104 1091 58
1108 1091 37
1119 1091 22
1120 1091 22
1121 1091 22
1122 1091 34
1123 1091 34
1124 1091 34
1125 1091 22
1126 1091 22
1127 1091 22
1228 1091 38
1229 1091 38
1230 1091 38
1231 1091 26
1232 1091 26
1233 1091 26
1234 1091 26
1239 1091 56
1240 1091 56
1241 1091 56
1242 1091 36
1243 1091 36
1244 1091 36
1245 1091 38
1246 1091 38
1247 1091 24
1248 1091 24
1249 1091 38
1250 1091 38
1255 1091 24
1093 1092 55
1094 1092 55
1095 1092 37
1096 1092 37
1097 1092 37
1098 1092 37
1103 1092 37
1104 1092 37
1108 1092 37
1122 1092 22
1123 1092 22
1124 1092 22
1125 1092 22
1126 1092 22
1127 1092 22
1239 1092 36
1240 1092 36
1241 1092 36
1242 1092 36
1243 1092 36
1244 1092 36
1245 1092 24
1246 1092 24
1247 1092 24
1248 1092 24
1249 1092 24
1250 1092 24
1255 1092 24
1094 1093 55
1095 1093 37
1096 1093 37
1097 1093 37
1098 1093 37
1103 1093 37
1104 1093 37
1108 1093 37
1122 1093 22
1123 1093 22
1124 1093 22
1125 1093 22
1126 1093 22
1127 1093 22
1239 1093 36
1240 1093 36
1241 1093 36
1242 1093 36
1243 1093 36
1244 1093 36
1245 1093 24
1246 1093 24
1247 1093 24
1248 1093 24
1249 1093 24
1250 1093 24
1255 1093 24
1095 1094 37
1096 1094 37
1097 1094 37
1098 1094 37
1103 1094 37
1104 1094 37
1108 1094 37
1122 1094 22
1123 1094 22
1124 1094 22
1125 1094 22
1126 1094 22
1127 1094 22
1239 1094 36
1240 1094 36
1241 1094 36
1242 1094 36
1243 1094 36
1244 1094 36
1245 1094 24
1246 1094 24
1247 1094 24
1248 1094 24
1249 1094 24
1250 1094 24
1255 1094 24
1096 1095 58
1097 1095 37
1098 1095 37
1103 1095 58
1104 1095 58
1108 1095 37
1228 1095 26
1229 1095 26
1230 1095 26
1231 1095 26
1232 1095 26
1233 1095 26
1234 1095 26
1239 1095 38
1240 1095 38
1241 1095 38
1242 1095 24
1243 1095 24
1244 1095 24
1245 1095 38
1246 1095 38
1247 1095 24
1248 1095 24
1249 1095 38
1250 1095 38
1255 1095 24
1097 1096 37
1098 1096 37
1103 1096 58
1104 1096 58
1108 1096 37
1228 1096 26
1229 1096 26
1230 1096 26
1231 1096 26
1232 1096 26
1233 1096 26
1234 1096 26
1239 1096 38
1240 1096 38
1241 1096 38
1242 1096 24
1243 1096 24
1244 1096 24
1245 1096 38
1246 1096 38
1247 1096 24
1248 1096 24
1249 1096 38
1250 1096 38
1255 1096 24
1098 1097 37
1103 1097 37
1104 1097 37
1108 1097 37
1239 1097 24
1240 1097 24
1241 1097 24
1242 1097 24
1243 1097 24
1244 1097 24
1245 1097 24
1246 1097 24
1247 1097 24
1248 1097 24
1249 1097 24
1250 1097 24
1255 1097 24
1103 1098 37
1104 1098 37
1108 1098 37
1239 1098 24
1240 1098 24
1241 1098 24
1242 1098 24
1243 1098 24
1244 1098 24
1245 1098 24
1246 1098 24
1247 1098 24
1248 1098 24
1249 1098 24
1250 1098 24
1255 1098 24
1104 1103 58
1108 1103 37
1228 1103 26
1229 1103 26
1230 1103 26
1231 1103 26
1232 1103 26
1233 1103 26
1234 1103 26
1239 1103 38
1240 1103 38
1241 1103 38
1242 1103 24
1243 1103 24
1244 1103 24
1245 1103 38
1246 1103 38
1247 1103 24
1248 1103 24
1249 1103 38
1250 1103 38
1255 1103 24
1108 1104 37
1228 1104 26
1229 1104 26
1230 1104 26
1231 1104 26
1232 1104 26
1233 1104 26
1234 1104 26
1239 1104 38
1240 1104 38
1241 1104 38
1242 1104 24
1243 1104 24
1244 1104 24
1245 1104 38
1246 1104 38
1247 1104 24
1248 1104 24
1249 1104 38
1250 1104 38
1255 1104 24
1239 1108 24
1240 1108 24
1241 1108 24
1242 1108 24
1243 1108 24
1244 1108 24
1245 1108 24
1246 1108 24
1247 1108 24
1248 1108 24
1249 1108 24
1250 1108 24
1255 1108 24
1117 1116 34
1118 1116 34
1119 1116 34
1120 1116 34
1121 1116 34
1161 1116 22
1162 1116 22
1163 1116 22
1172 1116 22
1173 1116 22
1174 1116 22
1217 1116 22
1218 1116 22
1219 1116 22
1228 1116 22
1229 1116 22
1230 1116 22
1118 1117 34
1119 1117 34
1120 1117 34
1121 1117 34
1161 1117 22
1162 1117 22
1163 1117 22
1172 1117 22
1173 1117 22
1174 1117 22
1217 1117 22
1218 1117 22
1219 1117 22
1228 1117 22
1229 1117 22
1230 1117 22
1119 1118 34
1120 1118 34
1121 1118 34
1161 1118 22
1162 1118 22
1163 1118 22
1172 1118 22
1173 1118 22
1174 1118 22
1217 1118 22
1218 1118 22
1219 1118 22
1228 1118 22
1229 1118 22
1230 1118 22
1120 1119 70
1121 1119 70
1122 1119 52
1123 1119 52
1124 1119 52
1150 1119 34
1151 1119 34
1152 1119 34
1161 1119 46
1162 1119 46
1163 1119 46
1172 1119 25
1173 1119 25
1174 1119 25
1217 1119 25
1218 1119 25
1219 1119 25
1228 1119 46
1229 1119 46
1230 1119 46
1239 1119 34
1240 1119 34
1241 1119 34
1307 1119 22
1308 1119 22
1309 1119 22
1310 1119 34
1311 1119 34
1312 1119 34
1313 1119 22
1314 1119 22
1315 1119 22
1344 1119 25
1345 1119 25
1346 1119 25
1357 1119 34
1358 1119 34
1359 1119 34
1370 1119 25
1371 1119 25
1372 1119 25
1121 1120 70
1122 1120 52
1123 1120 52
1124 1120 52
1150 1120 34
1151 1120 34
1152 1120 34
1161 1120 46
1162 1120 46
1163 1120 46
1172 1120 25
1173 1120 25
1174 1120 25
1217 1120 25
1218 1120 25
1219 1120 25
1228 1120 46
1229 1120 46
1230 1120 46
1239 1120 34
1240 1120 34
1241 1120 34
1307 1120 22
1308 1120 22
1309 1120 22
1310 1120 34
1311 1120 34
1312 1120 34
1313 1120 22
1314 1120 22
1315 1120 22
1344 1120 25
1345 1120 25
1346 1120 25
1357 1120 34
1358 1120 34
1359 1120 34
1370 1120 25
1371 1120 25
1372 1120 25
1122 1121 52
1123 1121 52
1124 1121 52
1150 1121 34
1151 1121 34
1152 1121 34
1161 1121 46
1162 1121 46
1163 1121 46
1172 1121 25
1173 1121 25
1174 1121 25
1217 1121 25
1218 1121 25
1219 1121 25
1228 1121 46
1229 1121 46
1230 1121 46
1239 1121 34
1240 1121 34
1241 1121 34
1307 1121 22
1308 1121 22
1309 1121 22
1310 1121 34
1311 1121 34
1312 1121 34
1313 1121 22
1314 1121 22
1315 1121 22
1344 1121 25
1345 1121 25
1346 1121 25
1357 1121 34
1358 1121 34
1359 1121 34
1370 1121 25
1371 1121 25
1372 1121 25
1123 1122 76
1124 1122 76
1125 1122 46
1126 1122 46
1127 1122 46
1140 1122 25
1141 1122 25
1142 1122 25
1150 1122 46
1151 1122 46
1152 1122 46
1161 1122 34
1162 1122 34
1163 1122 34
1228 1122 34
1229 1122 34
1230 1122 34
1239 1122 52
1240 1122 52
1241 1122 52
1242 1122 34
1243 1122 34
1244 1122 34
1284 1122 22
1285 1122 22
1286 1122 22
1287 1122 34
1288 1122 34
1289 1122 34
1290 1122 22
1291 1122 22
1292 1122 22
1307 1122 34
1308 1122 34
1309 1122 34
1310 1122 52
1311 1122 52
1312 1122 52
1313 1122 34
1314 1122 34
1315 1122 34
1344 1122 22
1345 1122 22
1346 1122 22
1357 1122 34
1358 1122 34
1359 1122 34
1370 1122 22
1371 1122 22
1372 1122 22
1124 1123 76
1125 1123 46
1126 1123 46
1127 1123 46
1140 1123 25
1141 1123 25
1142 1123 25
1150 1123 46
1151 1123 46
1152 1123 46
1161 1123 34
1162 1123 34
1163 1123 34
1228 1123 34
1229 1123 34
1230 1123 34
1239 1123 52
1240 1123 52
1241 1123 52
1242 1123 34
1243 1123 34
1244 1123 34
1284 1123 22
1285 1123 22
1286 1123 22
1287 1123 34
1288 1123 34
1289 1123 34
1290 1123 22
1291 1123 22
1292 1123 22
1307 1123 34
1308 1123 34
1309 1123 34
1310 1123 52
1311 1123 52
1312 1123 52
1313 1123 34
1314 1123 34
1315 1123 34
1344 1123 22
1345 1123 22
1346 1123 22
1357 1123 34
1358 1123 34
1359 1123 34
1370 1123 22
1371 1123 22
1372 1123 22
1125 1124 46
1126 1124 46
1127 1124 46
1140 1124 25
1141 1124 25
1142 1124 25
1150 1124 46
1151 1124 46
1152 1124 46
1161 1124 34
1162 1124 34
1163 1124 34
1228 1124 34
1229 1124 34
1230 1124 34
1239 1124 52
1240 1124 52
1241 1124 52
1242 1124 34
1243 1124 34
1244 1124 34
1284 1124 22
1285 1124 22
1286 1124 22
1287 1124 34
1288 1124 34
1289 1124 34
1290 1124 22
1291 1124 22
1292 1124 22
1307 1124 34
1308 1124 34
1309 1124 34
1310 1124 52
1311 1124 52
1312 1124 52
1313 1124 34
1314 1124 34
1315 1124 34
1344 1124 22
1345 1124 22
1346 1124 22
1357 1124 34
1358 1124 34
1359 1124 34
1370 1124 22
1371 1124 22
1372 1124 22
1126 1125 46
1127 1125 46
1140 1125 22
1141 1125 22
1142 1125 22
1150 1125 25
1151 1125 25
1152 1125 25
1239 1125 34
1240 1125 34
1241 1125 34
1242 1125 34
1243 1125 34
1244 1125 34
1284 1125 22
1285 1125 22
1286 1125 22
1287 1125 34
1288 1125 34
1289 1125 34
1290 1125 22
1291 1125 22
1292 1125 22
1307 1125 22
1308 1125 22
1309 1125 22
1310 1125 34
1311 1125 34
1312 1125 34
1313 1125 22
1314 1125 22
1315 1125 22
1127 1126 46
1140 1126 22
1141 1126 22
1142 1126 22
1150 1126 25
1151 1126 25
1152 1126 25
1239 1126 34
1240 1126 34
1241 1126 34
1242 1126 34
1243 1126 34
1244 1126 34
1284 1126 22
1285 1126 22
1286 1126 22
1287 1126 34
1288 1126 34
1289 1126 34
1290 1126 22
1291 1126 22
1292 1126 22
1307 1126 22
1308 1126 22
1309 1126 22
1310 1126 34
1311 1126 34
1312 1126 34
1313 1126 22
1314 1126 22
1315 1126 22
1140 1127 22
1141 1127 22
1142 1127 22
1150 1127 25
1151 1127 25
1152 1127 25
1239 1127 34
1240 1127 34
1241 1127 34
1242 1127 34
1243 1127 34
1244 1127 34
1284 1127 22
1285 1127 22
1286 1127 22
1287 1127 34
1288 1127 34
1289 1127 34
1290 1127 22
1291 1127 22
1292 1127 22
1307 1127 22
1308 1127 22
1309 1127 22
1310 1127 34
1311 1127 34
1312 1127 34
1313 1127 22
1314 1127 22
1315 1127 22
1139 1138 37
1140 1138 37
1141 1138 37
1142 1138 37
1143 1138 37
1148 1138 37
1149 1138 37
1150 1138 37
1151 1138 37
1152 1138 37
1153 1138 37
1154 1138 37
1277 1138 24
1278 1138 24
1279 1138 24
1284 1138 24
1285 1138 24
1286 1138 24
1300 1138 24
1301 1138 24
1302 1138 24
1303 1138 24
1307 1138 24
1308 1138 24
1309 1138 24
1140 1139 37
1141 1139 37
1142 1139 37
1143 1139 37
1148 1139 37
1149 1139 37
1150 1139 37
1151 1139 37
1152 1139 37
1153 1139 37
1154 1139 37
1277 1139 24
1278 1139 24
1279 1139 24
1284 1139 24
1285 1139 24
1286 1139 24
1300 1139 24
1301 1139 24
1302 1139 24
1303 1139 24
1307 1139 24
1308 1139 24
1309 1139 24
1141 1140 49
1142 1140 49
1143 1140 37
1148 1140 37
1149 1140 37
1150 1140 49
1151 1140 49
1152 1140 49
1153 1140 37
1154 1140 37
1277 1140 24
1278 1140 24
1279 1140 24
1284 1140 36
1285 1140 36
1286 1140 36
1287 1140 22
1288 1140 22
1289 1140 22
1300 1140 24
1301 1140 24
1302 1140 24
1303 1140 24
1307 1140 36
1308 1140 36
1309 1140 36
1310 1140 22
1311 1140 22
1312 1140 22
1142 1141 49
1143 1141 37
1148 1141 37
1149 1141 37
1150 1141 49
1151 1141 49
1152 1141 49
1153 1141 37
1154 1141 37
1277 1141 24
1278 1141 24
1279 1141 24
1284 1141 36
1285 1141 36
1286 1141 36
1287 1141 22
1288 1141 22
1289 1141 22
1300 1141 24
1301 1141 24
1302 1141 24
1303 1141 24
1307 1141 36
1308 1141 36
1309 1141 36
1310 1141 22
1311 1141 22
1312 1141 22
1143 1142 37
1148 1142 37
1149 1142 37
1150 1142 49
1151 1142 49
1152 1142 49
1153 1142 37
1154 1142 37
1277 1142 24
1278 1142 24
1279 1142 24
1284 1142 36
1285 1142 36
1286 1142 36
1287 1142 22
1288 1142 22
1289 1142 22
1300 1142 24
1301 1142 24
1302 1142 24
1303 1142 24
1307 1142 36
1308 1142 36
1309 1142 36
1310 1142 22
1311 1142 22
1312 1142 22
1148 1143 37
1149 1143 37
1150 1143 37
1151 1143 37
1152 1143 37
1153 1143 37
1154 1143 37
1277 1143 24
1278 1143 24
1279 1143 24
1284 1143 24
1285 1143 24
1286 1143 24
1300 1143 24
1301 1143 24
1302 1143 24
1303 1143 24
1307 1143 24
1308 1143 24
1309 1143 24
1149 1148 58
1150 1148 58
1151 1148 58
1152 1148 58
1153 1148 58
1154 1148 58
1159 1148 40
1160 1148 40
1161 1148 40
1162 1148 40
1163 1148 40
1164 1148 40
1165 1148 40
1277 1148 24
1278 1148 24
1279 1148 24
1284 1148 24
1285 1148 24
1286 1148 24
1300 1148 38
1301 1148 38
1302 1148 38
1303 1148 38
1307 1148 38
1308 1148 38
1309 1148 38
1323 1148 26
1324 1148 26
1325 1148 26
1326 1148 26
1344 1148 26
1345 1148 26
1346 1148 26
1150 1149 58
1151 1149 58
1152 1149 58
1153 1149 58
1154 1149 58
1159 1149 40
1160 1149 40
1161 1149 40
1162 1149 40
1163 1149 40
1164 1149 40
1165 1149 40
1277 1149 24
1278 1149 24
1279 1149 24
1284 1149 24
1285 1149 24
1286 1149 24
1300 1149 38
1301 1149 38
1302 1149 38
1303 1149 38
1307 1149 38
1308 1149 38
1309 1149 38
1323 1149 26
1324 1149 26
1325 1149 26
1326 1149 26
1344 1149 26
1345 1149 26
1346 1149 26
1151 1150 82
1152 1150 82
1153 1150 58
1154 1150 58
1159 1150 40
1160 1150 40
1161 1150 58
1162 1150 58
1163 1150 58
1164 1150 40
1165 1150 40
1277 1150 24
1278 1150 24
1279 1150 24
1284 1150 36
1285 1150 36
1286 1150 36
1287 1150 22
1288 1150 22
1289 1150 22
1300 1150 38
1301 1150 38
1302 1150 38
1303 1150 38
1307 1150 56
1308 1150 56
1309 1150 56
1310 1150 34
1311 1150 34
1312 1150 34
1323 1150 26
1324 1150 26
1325 1150 26
1326 1150 26
1344 1150 38
1345 1150 38
1346 1150 38
1357 1150 22
1358 1150 22
1359 1150 22
1152 1151 82
1153 1151 58
1154 1151 58
1159 1151 40
1160 1151 40
1161 1151 58
1162 1151 58
1163 1151 58
1164 1151 40
1165 1151 40
1277 1151 24
1278 1151 24
1279 1151 24
1284 1151 36
1285 1151 36
1286 1151 36
1287 1151 22
1288 1151 22
1289 1151 22
1300 1151 38
1301 1151 38
1302 1151 38
1303 1151 38
1307 1151 56
1308 1151 56
1309 1151 56
1310 1151 34
1311 1151 34
1312 1151 34
1323 1151 26
1324 1151 26
1325 1151 26
1326 1151 26
1344 1151 38
1345 1151 38
1346 1151 38
1357 1151 22
1358 1151 22
1359 1151 22
1153 1152 58
1154 1152 58
1159 1152 40
1160 1152 40
1161 1152 58
1162 1152 58
1163 1152 58
1164 1152 40
1165 1152 40
1277 1152 24
1278 1152 24
1279 1152 24
1284 1152 36
1285 1152 36
1286 1152 36
1287 1152 22
1288 1152 22
1289 1152 22
1300 1152 38
1301 1152 38
1302 1152 38
1303 1152 38
1307 1152 56
1308 1152 56
1309 1152 56
1310 1152 34
1311 1152 34
1312 1152 34
1323 1152 26
1324 1152 26
1325 1152 26
1326 1152 26
1344 1152 38
1345 1152 38
1346 1152 38
1357 1152 22
1358 1152 22
1359 1152 22
1154 1153 58
1159 1153 40
1160 1153 40
1161 1153 40
1162 1153 40
1163 1153 40
1164 1153 40
1165 1153 40
1277 1153 24
1278 1153 24
1279 1153 24
1284 1153 24
1285 1153 24
1286 1153 24
1300 1153 38
1301 1153 38
1302 1153 38
1303 1153 38
1307 1153 38
1308 1153 38
1309 1153 38
1323 1153 26
1324 1153 26
1325 1153 26
1326 1153 26
1344 1153 26
1345 1153 26
1346 1153 26
1159 1154 40
1160 1154 40
1161 1154 40
1162 1154 40
1163 1154 40
1164 1154 40
1165 1154 40
1277 1154 24
1278 1154 24
1279 1154 24
1284 1154 24
1285 1154 24
1286 1154 24
1300 1154 38
1301 1154 38
1302 1154 38
1303 1154 38
1307 1154 38
1308 1154 38
1309 1154 38
1323 1154 26
1324 1154 26
1325 1154 26
1326 1154 26
1344 1154 26
1345 1154 26
1346 1154 26
1160 1159 61
1161 1159 61
1162 1159 61
1163 1159 61
1164 1159 61
1165 1159 61
1170 1159 40
1171 1159 40
1172 1159 40
1173 1159 40
1174 1159 40
1175 1159 40
1176 1159 40
1300 1159 26
1301 1159 26
1302 1159 26
1303 1159 26
1307 1159 26
1308 1159 26
1309 1159 26
1323 1159 40
1324 1159 40
1325 1159 40
1326 1159 40
1330 1159 26
1331 1159 26
1332 1159 26
1333 1159 26
1344 1159 40
1345 1159 40
1346 1159 40
1347 1159 26
1348 1159 26
1349 1159 26
1161 1160 61
1162 1160 61
1163 1160 61
1164 1160 61
1165 1160 61
1170 1160 40
1171 1160 40
1172 1160 40
1173 1160 40
1174 1160 40
1175 1160 40
1176 1160 40
1300 1160 26
1301 1160 26
1302 1160 26
1303 1160 26
1307 1160 26
1308 1160 26
1309 1160 26
1323 1160 40
1324 1160 40
1325 1160 40
1326 1160 40
1330 1160 26
1331 1160 26
1332 1160 26
1333 1160 26
1344 1160 40
1345 1160 40
1346 1160 40
1347 1160 26
1348 1160 26
1349 1160 26
1162 1161 85
1163 1161 85
1164 1161 61
1165 1161 61
1170 1161 40
1171 1161 40
1172 1161 52
1173 1161 52
1174 1161 52
1175 1161 40
1176 1161 40
1300 1161 26
1301 1161 26
1302 1161 26
1303 1161 26
1307 1161 38
1308 1161 38
1309 1161 38
1310 1161 22
1311 1161 22
1312 1161 22
1323 1161 40
1324 1161 40
1325 1161 40
1326 1161 40
1330 1161 26
1331 1161 26
1332 1161 26
1333 1161 26
1344 1161 52
1345 1161 52
1346 1161 52
1347 1161 29
1348 1161 29
1349 1161 29
1357 1161 25
1358 1161 25
1359 1161 25
1163 1162 85
1164 1162 61
1165 1162 61
1170 1162 40
1171 1162 40
1172 1162 52
1173 1162 52
1174 1162 52
1175 1162 40
1176 1162 40
1300 1162 26
1301 1162 26
1302 1162 26
1303 1162 26
1307 1162 38
1308 1162 38
1309 1162 38
1310 1162 22
1311 1162 22
1312 1162 22
1323 1162 40
1324 1162 40
1325 1162 40
1326 1162 40
1330 1162 26
1331 1162 26
1332 1162 26
1333 1162 26
1344 1162 52
1345 1162 52
1346 1162 52
1347 1162 29
1348 1162 29
1349 1162 29
1357 1162 25
1358 1162 25
1359 1162 25
1164 1163 61
1165 1163 61
1170 1163 40
1171 1163 40
1172 1163 52
1173 1163 52
1174 1163 52
1175 1163 40
1176 1163 40
1300 1163 26
1301 1163 26
1302 1163 26
1303 1163 26
1307 1163 38
1308 1163 38
1309 1163 38
1310 1163 22
1311 1163 22
1312 1163 22
1323 1163 40
1324 1163 40
1325 1163 40
1326 1163 40
1330 1163 26
1331 1163 26
1332 1163 26
1333 1163 26
1344 1163 52
1345 1163 52
1346 1163 52
1347 1163 29
1348 1163 29
1349 1163 29
1357 1163 25
1358 1163 25
1359 1163 25
1165 1164 61
1170 1164 40
1171 1164 40
1172 1164 40
1173 1164 40
1174 1164 40
1175 1164 40
1176 1164 40
1300 1164 26
1301 1164 26
1302 1164 26
1303 1164 26
1307 1164 26
1308 1164 26
1309 1164 26
1323 1164 40
1324 1164 40
1325 1164 40
1326 1164 40
1330 1164 26
1331 1164 26
1332 1164 26
1333 1164 26
1344 1164 40
1345 1164 40
1346 1164 40
1347 1164 26
1348 1164 26
1349 1164 26
1170 1165 40
1171 1165 40
1172 1165 40
1173 1165 40
1174 1165 40
1175 1165 40
1176 1165 40
1300 1165 26
1301 1165 26
1302 1165 26
1303 1165 26
1307 1165 26
1308 1165 26
1309 1165 26
1323 1165 40
1324 1165 40
1325 1165 40
1326 1165 40
1330 1165 26
1331 1165 26
1332 1165 26
1333 1165 26
1344 1165 40
1345 1165 40
1346 1165 40
1347 1165 26
1348 1165 26
1349 1165 26
1171 1170 58
1172 1170 58
1173 1170 58
1174 1170 58
1175 1170 58
1176 1170 58
1181 1170 37
1182 1170 37
1183 1170 37
1188 1170 37
1189 1170 37
1190 1170 37
1323 1170 26
1324 1170 26
1325 1170 26
1326 1170 26
1330 1170 38
1331 1170 38
1332 1170 38
1333 1170 38
1337 1170 24
1338 1170 24
1339 1170 24
1344 1170 26
1345 1170 26
1346 1170 26
1347 1170 38
1348 1170 38
1349 1170 38
1350 1170 24
1351 1170 24
1352 1170 24
1172 1171 58
1173 1171 58
1174 1171 58
1175 1171 58
1176 1171 58
1181 1171 37
1182 1171 37
1183 1171 37
1188 1171 37
1189 1171 37
1190 1171 37
1323 1171 26
1324 1171 26
1325 1171 26
1326 1171 26
1330 1171 38
1331 1171 38
1332 1171 38
1333 1171 38
1337 1171 24
1338 1171 24
1339 1171 24
1344 1171 26
1345 1171 26
1346 1171 26
1347 1171 38
1348 1171 38
1349 1171 38
1350 1171 24
1351 1171 24
1352 1171 24
1173 1172 70
1174 1172 70
1175 1172 58
1176 1172 58
1181 1172 37
1182 1172 37
1183 1172 37
1188 1172 37
1189 1172 37
1190 1172 37
1323 1172 26
1324 1172 26
1325 1172 26
1326 1172 26
1330 1172 38
1331 1172 38
1332 1172 38
1333 1172 38
1337 1172 24
1338 1172 24
1339 1172 24
1344 1172 29
1345 1172 29
1346 1172 29
1347 1172 38
1348 1172 38
1349 1172 38
1350 1172 24
1351 1172 24
1352 1172 24
1174 1173 70
1175 1173 58
1176 1173 58
1181 1173 37
1182 1173 37
1183 1173 37
1188 1173 37
1189 1173 37
1190 1173 37
1323 1173 26
1324 1173 26
1325 1173 26
1326 1173 26
1330 1173 38
1331 1173 38
1332 1173 38
1333 1173 38
1337 1173 24
1338 1173 24
1339 1173 24
1344 1173 29
1345 1173 29
1346 1173 29
1347 1173 38
1348 1173 38
1349 1173 38
1350 1173 24
1351 1173 24
1352 1173 24
1175 1174 58
1176 1174 58
1181 1174 37
1182 1174 37
1183 1174 37
1188 1174 37
1189 1174 37
1190 1174 37
1323 1174 26
1324 1174 26
1325 1174 26
1326 1174 26
1330 1174 38
1331 1174 38
1332 1174 38
1333 1174 38
1337 1174 24
1338 1174 24
1339 1174 24
1344 1174 29
1345 1174 29
1346 1174 29
1347 1174 38
1348 1174 38
1349 1174 38
1350 1174 24
1351 1174 24
1352 1174 24
1176 1175 58
1181 1175 37
1182 1175 37
1183 1175 37
1188 1175 37
1189 1175 37
1190 1175 37
1323 1175 26
1324 1175 26
1325 1175 26
1326 1175 26
1330 1175 38
1331 1175 38
1332 1175 38
1333 1175 38
1337 1175 24
1338 1175 24
1339 1175 24
1344 1175 26
1345 1175 26
1346 1175 26
1347 1175 38
1348 1175 38
1349 1175 38
1350 1175 24
1351 1175 24
1352 1175 24
1181 1176 37
1182 1176 37
1183 1176 37
1188 1176 37
1189 1176 37
1190 1176 37
1323 1176 26
1324 1176 26
1325 1176 26
1326 1176 26
1330 1176 38
1331 1176 38
1332 1176 38
1333 1176 38
1337 1176 24
1338 1176 24
1339 1176 24
1344 1176 26
1345 1176 26
1346 1176 26
1347 1176 38
1348 1176 38
1349 1176 38
1350 1176 24
1351 1176 24
1352 1176 24
1182 1181 37
1183 1181 37
1188 1181 37
1189 1181 37
1190 1181 37
1330 1181 24
1331 1181 24
1332 1181 24
1333 1181 24
1337 1181 24
1338 1181 24
1339 1181 24
1347 1181 24
1348 1181 24
1349 1181 24
1350 1181 24
1351 1181 24
1352 1181 24
1183 1182 37
1188 1182 37
1189 1182 37
1190 1182 37
1330 1182 24
1331 1182 24
1332 1182 24
1333 1182 24
1337 1182 24
1338 1182 24
1339 1182 24
1347 1182 24
1348 1182 24
1349 1182 24
1350 1182 24
1351 1182 24
1352 1182 24
1188 1183 37
1189 1183 37
1190 1183 37
1330 1183 24
1331 1183 24
1332 1183 24
1333 1183 24
1337 1183 24
1338 1183 24
1339 1183 24
1347 1183 24
1348 1183 24
1349 1183 24
1350 1183 24
1351 1183 24
1352 1183 24
1189 1188 37
1190 1188 37
1330 1188 24
1331 1188 24
1332 1188 24
1333 1188 24
1337 1188 24
1338 1188 24
1339 1188 24
1347 1188 24
1348 1188 24
1349 1188 24
1350 1188 24
1351 1188 24
1352 1188 24
1190 1189 37
1330 1189 24
1331 1189 24
1332 1189 24
1333 1189 24
1337 1189 24
1338 1189 24
1339 1189 24
1347 1189 24
1348 1189 24
1349 1189 24
1350 1189 24
1351 1189 24
1352 1189 24
1330 1190 24
1331 1190 24
1332 1190 24
1333 1190 24
1337 1190 24
1338 1190 24
1339 1190 24
1347 1190 24
1348 1190 24
1349 1190 24
1350 1190 24
1351 1190 24
1352 1190 24
1208 1207 37
1209 1207 37
1210 1207 37
1211 1207 37
1212 1207 37
1217 1207 37
1218 1207 37
1219 1207 37
1220 1207 37
1221 1207 37
1222 1207 37
1223 1207 37
1380 1207 24
1381 1207 24
1382 1207 24
1383 1207 24
1384 1207 24
1385 1207 24
1386 1207 24
1387 1207 24
1388 1207 24
1389 1207 24
1390 1207 24
1399 1207 24
1400 1207 24
1209 1208 37
1210 1208 37
1211 1208 37
1212 1208 37
1217 1208 37
1218 1208 37
1219 1208 37
1220 1208 37
1221 1208 37
1222 1208 37
1223 1208 37
1380 1208 24
1381 1208 24
1382 1208 24
1383 1208 24
1384 1208 24
1385 1208 24
1386 1208 24
1387 1208 24
1388 1208 24
1389 1208 24
1390 1208 24
1399 1208 24
1400 1208 24
1210 1209 37
1211 1209 37
1212 1209 37
1217 1209 37
1218 1209 37
1219 1209 37
1220 1209 37
1221 1209 37
1222 1209 37
1223 1209 37
1380 1209 24
1381 1209 24
1382 1209 24
1383 1209 24
1384 1209 24
1385 1209 24
1386 1209 24
1387 1209 24
1388 1209 24
1389 1209 24
1390 1209 24
1399 1209 24
1400 1209 24
1211 1210 37
1212 1210 37
1217 1210 37
1218 1210 37
1219 1210 37
1220 1210 37
1221 1210 37
1222 1210 37
1223 1210 37
1380 1210 24
1381 1210 24
1382 1210 24
1383 1210 24
1384 1210 24
1385 1210 24
1386 1210 24
1387 1210 24
1388 1210 24
1389 1210 24
1390 1210 24
1399 1210 24
1400 1210 24
1212 1211 37
1217 1211 37
1218 1211 37
1219 1211 37
1220 1211 37
1221 1211 37
1222 1211 37
1223 1211 37
1380 1211 24
1381 1211 24
1382 1211 24
1383 1211 24
1384 1211 24
1385 1211 24
1386 1211 24
1387 1211 24
1388 1211 24
1389 1211 24
1390 1211 24
1399 1211 24
1400 1211 24
1217 1212 37
1218 1212 37
1219 1212 37
1220 1212 37
1221 1212 37
1222 1212 37
1223 1212 37
1380 1212 24
1381 1212 24
1382 1212 24
1383 1212 24
1384 1212 24
1385 1212 24
1386 1212 24
1387 1212 24
1388 1212 24
1389 1212 24
1390 1212 24
1399 1212 24
1400 1212 24
1218 1217 70
1219 1217 70
1220 1217 58
1221 1217 57
1222 1217 58
1223 1217 58
1228 1217 52
1229 1217 51
1230 1217 52
1231 1217 40
1232 1217 40
1233 1217 40
1234 1217 40
1370 1217 29
1371 1217 29
1372 1217 29
1373 1217 26
1374 1217 26
1375 1217 26
1376 1217 26
1380 1217 24
1381 1217 24
1382 1217 24
1383 1217 38
1384 1217 38
1385 1217 38
1386 1217 24
1387 1217 24
1388 1217 38
1389 1217 38
1390 1217 24
1399 1217 38
1400 1217 38
1219 1218 70
1220 1218 58
1221 1218 57
1222 1218 58
1223 1218 58
1228 1218 52
1229 1218 51
1230 1218 52
1231 1218 40
1232 1218 40
1233 1218 40
1234 1218 40
1370 1218 29
1371 1218 29
1372 1218 29
1373 1218 26
1374 1218 26
1375 1218 26
1376 1218 26
1380 1218 24
1381 1218 24
1382 1218 24
1383 1218 38
1384 1218 38
1385 1218 38
1386 1218 24
1387 1218 24
1388 1218 38
1389 1218 38
1390 1218 24
1399 1218 38
1400 1218 38
1220 1219 58
1221 1219 57
1222 1219 58
1223 1219 58
1228 1219 52
1229 1219 51
1230 1219 52
1231 1219 40
1232 1219 40
1233 1219 40
1234 1219 40
1370 1219 29
1371 1219 29
1372 1219 29
1373 1219 26
1374 1219 26
1375 1219 26
1376 1219 26
1380 1219 24
1381 1219 24
1382 1219 24
1383 1219 38
1384 1219 38
1385 1219 38
1386 1219 24
1387 1219 24
1388 1219 38
1389 1219 38
1390 1219 24
1399 1219 38
1400 1219 38
1221 1220 57
1222 1220 58
1223 1220 58
1228 1220 40
1229 1220 39
1230 1220 40
1231 1220 40
1232 1220 40
1233 1220 40
1234 1220 40
1370 1220 26
1371 1220 26
1372 1220 26
1373 1220 26
1374 1220 26
1375 1220 26
1376 1220 26
1380 1220 24
1381 1220 24
1382 1220 24
1383 1220 38
1384 1220 38
1385 1220 38
1386 1220 24
1387 1220 24
1388 1220 38
1389 1220 38
1390 1220 24
1399 1220 38
1400 1220 38
1222 1221 57
1223 1221 57
1228 1221 39
1230 1221 39
1231 1221 39
1232 1221 39
1233 1221 39
1234 1221 39
1370 1221 25
1371 1221 25
1372 1221 25
1373 1221 25
1374 1221 25
1375 1221 25
1376 1221 25
1380 1221 24
1381 1221 24
1382 1221 24
1383 1221 37
1384 1221 37
1385 1221 37
1386 1221 24
1387 1221 24
1388 1221 37
1389 1221 37
1390 1221 24
1399 1221 37
1400 1221 37
1223 1222 58
1228 1222 40
1229 1222 39
1230 1222 40
1231 1222 40
1232 1222 40
1233 1222 40
1234 1222 40
1370 1222 26
1371 1222 26
1372 1222 26
1373 1222 26
1374 1222 26
1375 1222 26
1376 1222 26
1380 1222 24
1381 1222 24
1382 1222 24
1383 1222 38
1384 1222 38
1385 1222 38
1386 1222 24
1387 1222 24
1388 1222 38
1389 1222 38
1390 1222 24
1399 1222 38
1400 1222 38
1228 1223 40
1229 1223 39
1230 1223 40
1231 1223 40
1232 1223 40
1233 1223 40
1234 1223 40
1370 1223 26
1371 1223 26
1372 1223 26
1373 1223 26
1374 1223 26
1375 1223 26
1376 1223 26
1380 1223 24
1381 1223 24
1382 1223 24
1383 1223 38
1384 1223 38
1385 1223 38
1386 1223 24
1387 1223 24
1388 1223 38
1389 1223 38
1390 1223 24
1399 1223 38
1400 1223 38
1229 1228 84
1230 1228 85
1231 1228 61
1232 1228 61
1233 1228 61
1234 1228 61
1239 1228 58
1240 1228 58
1241 1228 58
1245 1228 40
1246 1228 40
1249 1228 40
1250 1228 40
1310 1228 22
1311 1228 22
1312 1228 22
1313 1228 38
1314 1228 38
1315 1228 36
1316 1228 26
1317 1228 26
1318 1228 26
1319 1228 26
1357 1228 25
1358 1228 25
1359 1228 25
1370 1228 52
1371 1228 52
1372 1228 52
1373 1228 40
1374 1228 40
1375 1228 39
1376 1228 39
1383 1228 29
1384 1228 29
1385 1228 29
1388 1228 26
1389 1228 26
1399 1228 26
1400 1228 26
1230 1229 84
1231 1229 60
1232 1229 60
1233 1229 60
1234 1229 60
1239 1229 58
1240 1229 58
1241 1229 58
1245 1229 40
1246 1229 40
1249 1229 40
1250 1229 40
1310 1229 22
1311 1229 22
1312 1229 22
1313 1229 38
1314 1229 38
1315 1229 36
1316 1229 26
1317 1229 26
1318 1229 26
1319 1229 26
1357 1229 25
1358 1229 25
1359 1229 25
1370 1229 51
1371 1229 51
1372 1229 51
1373 1229 39
1374 1229 39
1375 1229 38
1376 1229 38
1383 1229 28
1384 1229 28
1385 1229 28
1388 1229 25
1389 1229 25
1399 1229 25
1400 1229 25
1231 1230 61
1232 1230 61
1233 1230 61
1234 1230 61
1239 1230 58
1240 1230 58
1241 1230 58
1245 1230 40
1246 1230 40
1249 1230 40
1250 1230 40
1310 1230 22
1311 1230 22
1312 1230 22
1313 1230 38
1314 1230 38
1315 1230 36
1316 1230 26
1317 1230 26
1318 1230 26
1319 1230 26
1357 1230 25
1358 1230 25
1359 1230 25
1370 1230 52
1371 1230 52
1372 1230 52
1373 1230 40
1374 1230 40
1375 1230 39
1376 1230 39
1383 1230 29
1384 1230 29
1385 1230 29
1388 1230 26
1389 1230 26
1399 1230 26
1400 1230 26
1232 1231 61
1233 1231 61
1234 1231 61
1239 1231 40
1240 1231 40
1241 1231 40
1245 1231 40
1246 1231 40
1249 1231 40
1250 1231 40
1313 1231 26
1314 1231 26
1315 1231 24
1316 1231 26
1317 1231 26
1318 1231 26
1319 1231 26
1370 1231 40
1371 1231 40
1372 1231 40
1373 1231 40
1374 1231 40
1375 1231 39
1376 1231 39
1383 1231 26
1384 1231 26
1385 1231 26
1388 1231 26
1389 1231 26
1399 1231 26
1400 1231 26
1233 1232 61
1234 1232 61
1239 1232 40
1240 1232 40
1241 1232 40
1245 1232 40
1246 1232 40
1249 1232 40
1250 1232 40
1313 1232 26
1314 1232 26
1315 1232 24
1316 1232 26
1317 1232 26
1318 1232 26
1319 1232 26
1370 1232 40
1371 1232 40
1372 1232 40
1373 1232 40
1374 1232 40
1375 1232 39
1376 1232 39
1383 1232 26
1384 1232 26
1385 1232 26
1388 1232 26
1389 1232 26
1399 1232 26
1400 1232 26
1234 1233 61
1239 1233 40
1240 1233 40
1241 1233 40
1245 1233 40
1246 1233 40
1249 1233 40
1250 1233 40
1313 1233 26
1314 1233 26
1315 1233 24
1316 1233 26
1317 1233 26
1318 1233 26
1319 1233 26
1370 1233 40
1371 1233 40
1372 1233 40
1373 1233 40
1374 1233 40
1375 1233 39
1376 1233 39
1383 1233 26
1384 1233 26
1385 1233 26
1388 1233 26
1389 1233 26
1399 1233 26
1400 1233 26
1239 1234 40
1240 1234 40
1241 1234 40
1245 1234 40
1246 1234 40
1249 1234 40
1250 1234 40
1313 1234 26
1314 1234 26
1315 1234 24
1316 1234 26
1317 1234 26
1318 1234 26
1319 1234 26
1370 1234 40
1371 1234 40
1372 1234 40
1373 1234 40
1374 1234 40
1375 1234 39
1376 1234 39
1383 1234 26
1384 1234 26
1385 1234 26
1388 1234 26
1389 1234 26
1399 1234 26
1400 1234 26
1240 1239 85
1241 1239 85
1242 1239 55
1243 1239 55
1244 1239 55
1245 1239 58
1246 1239 58
1247 1239 37
1248 1239 37
1249 1239 58
1250 1239 58
1255 1239 37
1287 1239 22
1288 1239 22
1289 1239 22
1290 1239 36
1291 1239 36
1292 1239 36
1293 1239 24
1294 1239 24
1295 1239 24
1310 1239 34
1311 1239 34
1312 1239 34
1313 1239 56
1314 1239 56
1315 1239 54
1316 1239 38
1317 1239 38
1318 1239 38
1319 1239 38
1357 1239 22
1358 1239 22
1359 1239 22
1370 1239 38
1371 1239 38
1372 1239 38
1373 1239 26
1374 1239 26
1375 1239 25
1376 1239 25
1241 1240 85
1242 1240 55
1243 1240 55
1244 1240 55
1245 1240 58
1246 1240 58
1247 1240 37
1248 1240 37
1249 1240 58
1250 1240 58
1255 1240 37
1287 1240 22
1288 1240 22
1289 1240 22
1290 1240 36
1291 1240 36
1292 1240 36
1293 1240 24
1294 1240 24
1295 1240 24
1310 1240 34
1311 1240 34
1312 1240 34
1313 1240 56
1314 1240 56
1315 1240 54
1316 1240 38
1317 1240 38
1318 1240 38
1319 1240 38
1357 1240 22
1358 1240 22
1359 1240 22
1370 1240 38
1371 1240 38
1372 1240 38
1373 1240 26
1374 1240 26
1375 1240 25
1376 1240 25
1242 1241 55
1243 1241 55
1244 1241 55
1245 1241 58
1246 1241 58
1247 1241 37
1248 1241 37
1249 1241 58
1250 1241 58
1255 1241 37
1287 1241 22
1288 1241 22
1289 1241 22
1290 1241 36
1291 1241 36
1292 1241 36
1293 1241 24
1294 1241 24
1295 1241 24
1310 1241 34
1311 1241 34
1312 1241 34
1313 1241 56
1314 1241 56
1315 1241 54
1316 1241 38
1317 1241 38
1318 1241 38
1319 1241 38
1357 1241 22
1358 1241 22
1359 1241 22
1370 1241 38
1371 1241 38
1372 1241 38
1373 1241 26
1374 1241 26
1375 1241 25
1376 1241 25
1243 1242 55
1244 1242 55
1245 1242 37
1246 1242 37
1247 1242 37
1248 1242 37
1249 1242 37
1250 1242 37
1255 1242 37
1287 1242 22
1288 1242 22
1289 1242 22
1290 1242 36
1291 1242 36
1292 1242 36
1293 1242 24
1294 1242 24
1295 1242 24
1310 1242 22
1311 1242 22
1312 1242 22
1313 1242 36
1314 1242 36
1315 1242 36
1316 1242 24
1317 1242 24
1318 1242 24
1319 1242 24
1244 1243 55
1245 1243 37
1246 1243 37
1247 1243 37
1248 1243 37
1249 1243 37
1250 1243 37
1255 1243 37
1287 1243 22
1288 1243 22
1289 1243 22
1290 1243 36
1291 1243 36
1292 1243 36
1293 1243 24
1294 1243 24
1295 1243 24
1310 1243 22
1311 1243 22
1312 1243 22
1313 1243 36
1314 1243 36
1315 1243 36
1316 1243 24
1317 1243 24
1318 1243 24
1319 1243 24
1245 1244 37
1246 1244 37
1247 1244 37
1248 1244 37
1249 1244 37
1250 1244 37
1255 1244 37
1287 1244 22
1288 1244 22
1289 1244 22
1290 1244 36
1291 1244 36
1292 1244 36
1293 1244 24
1294 1244 24
1295 1244 24
1310 1244 22
1311 1244 22
1312 1244 22
1313 1244 36
1314 1244 36
1315 1244 36
1316 1244 24
1317 1244 24
1318 1244 24
1319 1244 24
1246 1245 58
1247 1245 37
1248 1245 37
1249 1245 58
1250 1245 58
1255 1245 37
1290 1245 24
1291 1245 24
1292 1245 24
1293 1245 24
1294 1245 24
1295 1245 24
1313 1245 38
1314 1245 38
1315 1245 36
1316 1245 38
1317 1245 38
1318 1245 38
1319 1245 38
1370 1245 26
1371 1245 26
1372 1245 26
1373 1245 26
1374 1245 26
1375 1245 25
1376 1245 25
1247 1246 37
1248 1246 37
1249 1246 58
1250 1246 58
1255 1246 37
1290 1246 24
1291 1246 24
1292 1246 24
1293 1246 24
1294 1246 24
1295 1246 24
1313 1246 38
1314 1246 38
1315 1246 36
1316 1246 38
1317 1246 38
1318 1246 38
1319 1246 38
1370 1246 26
1371 1246 26
1372 1246 26
1373 1246 26
1374 1246 26
1375 1246 25
1376 1246 25
1248 1247 37
1249 1247 37
1250 1247 37
1255 1247 37
1290 1247 24
1291 1247 24
1292 1247 24
1293 1247 24
1294 1247 24
1295 1247 24
1313 1247 24
1314 1247 24
1315 1247 24
1316 1247 24
1317 1247 24
1318 1247 24
1319 1247 24
1249 1248 37
1250 1248 37
1255 1248 37
1290 1248 24
1291 1248 24
1292 1248 24
1293 1248 24
1294 1248 24
1295 1248 24
1313 1248 24
1314 1248 24
1315 1248 24
1316 1248 24
1317 1248 24
1318 1248 24
1319 1248 24
1250 1249 58
1255 1249 37
1290 1249 24
1291 1249 24
1292 1249 24
1293 1249 24
1294 1249 24
1295 1249 24
1313 1249 38
1314 1249 38
1315 1249 36
1316 1249 38
1317 1249 38
1318 1249 38
1319 1249 38
1370 1249 26
1371 1249 26
1372 1249 26
1373 1249 26
1374 1249 26
1375 1249 25
1376 1249 25
1255 1250 37
1290 1250 24
1291 1250 24
1292 1250 24
1293 1250 24
1294 1250 24
1295 1250 24
1313 1250 38
1314 1250 38
1315 1250 36
1316 1250 38
1317 1250 38
1318 1250 38
1319 1250 38
1370 1250 26
1371 1250 26
1372 1250 26
1373 1250 26
1374 1250 26
1375 1250 25
1376 1250 25
1290 1255 24
1291 1255 24
1292 1255 24
1293 1255 24
1294 1255 24
1295 1255 24
1313 1255 24
1314 1255 24
1315 1255 24
1316 1255 24
1317 1255 24
1318 1255 24
1319 1255 24
1278 1277 37
1279 1277 37
1284 1277 37
1285 1277 37
1286 1277 37
1300 1277 37
1301 1277 37
1302 1277 37
1303 1277 37
1307 1277 37
1308 1277 37
1309 1277 37
1529 1277 24
1530 1277 24
1531 1277 24
1532 1277 24
1533 1277 24
1534 1277 24
1535 1277 24
1540 1277 24
1541 1277 24
1542 1277 24
1543 1277 24
1544 1277 24
1550 1277 24
1279 1278 37
1284 1278 37
1285 1278 37
1286 1278 37
1300 1278 37
1301 1278 37
1302 1278 37
1303 1278 37
1307 1278 37
1308 1278 37
1309 1278 37
1529 1278 24
1530 1278 24
1531 1278 24
1532 1278 24
1533 1278 24
1534 1278 24
1535 1278 24
1540 1278 24
1541 1278 24
1542 1278 24
1543 1278 24
1544 1278 24
1550 1278 24
1284 1279 37
1285 1279 37
1286 1279 37
1300 1279 37
1301 1279 37
1302 1279 37
1303 1279 37
1307 1279 37
1308 1279 37
1309 1279 37
1529 1279 24
1530 1279 24
1531 1279 24
1532 1279 24
1533 1279 24
1534 1279 24
1535 1279 24
1540 1279 24
1541 1279 24
1542 1279 24
1543 1279 24
1544 1279 24
1550 1279 24
1285 1284 49
1286 1284 49
1287 1284 22
1288 1284 22
1289 1284 22
1300 1284 37
1301 1284 37
1302 1284 37
1303 1284 37
1307 1284 49
1308 1284 49
1309 1284 49
1310 1284 22
1311 1284 22
1312 1284 22
1529 1284 24
1530 1284 24
1531 1284 24
1532 1284 24
1533 1284 24
1534 1284 24
1535 1284 24
1540 1284 24
1541 1284 24
1542 1284 24
1543 1284 24
1544 1284 24
1550 1284 24
1286 1285 49
1287 1285 22
1288 1285 22
1289 1285 22
1300 1285 37
1301 1285 37
1302 1285 37
1303 1285 37
1307 1285 49
1308 1285 49
1309 1285 49
1310 1285 22
1311 1285 22
1312 1285 22
1529 1285 24
1530 1285 24
1531 1285 24
1532 1285 24
1533 1285 24
1534 1285 24
1535 1285 24
1540 1285 24
1541 1285 24
1542 1285 24
1543 1285 24
1544 1285 24
1550 1285 24
1287 1286 22
1288 1286 22
1289 1286 22
1300 1286 37
1301 1286 37
1302 1286 37
1303 1286 37
1307 1286 49
1308 1286 49
1309 1286 49
1310 1286 22
1311 1286 22
1312 1286 22
1529 1286 24
1530 1286 24
1531 1286 24
1532 1286 24
1533 1286 24
1534 1286 24
1535 1286 24
1540 1286 24
1541 1286 24
1542 1286 24
1543 1286 24
1544 1286 24
1550 1286 24
1288 1287 34
1289 1287 34
1290 1287 22
1291 1287 22
1292 1287 22
1307 1287 22
1308 1287 22
1309 1287 22
1310 1287 34
1311 1287 34
1312 1287 34
1313 1287 22
1314 1287 22
1315 1287 22
1289 1288 34
1290 1288 22
1291 1288 22
1292 1288 22
1307 1288 22
1308 1288 22
1309 1288 22
1310 1288 34
1311 1288 34
1312 1288 34
1313 1288 22
1314 1288 22
1315 1288 22
1290 1289 22
1291 1289 22
1292 1289 22
1307 1289 22
1308 1289 22
1309 1289 22
1310 1289 34
1311 1289 34
1312 1289 34
1313 1289 22
1314 1289 22
1315 1289 22
1291 1290 49
1292 1290 49
1293 1290 37
1294 1290 37
1295 1290 37
1310 1290 22
1311 1290 22
1312 1290 22
1313 1290 49
1314 1290 49
1315 1290 49
1316 1290 37
1317 1290 37
1318 1290 37
1319 1290 37
1492 1290 24
1493 1290 24
1498 1290 24
1499 1290 24
1500 1290 24
1501 1290 24
1502 1290 24
1503 1290 24
1504 1290 24
1505 1290 24
1510 1290 24
1511 1290 24
1512 1290 24
1292 1291 49
1293 1291 37
1294 1291 37
1295 1291 37
1310 1291 22
1311 1291 22
1312 1291 22
1313 1291 49
1314 1291 49
1315 1291 49
1316 1291 37
1317 1291 37
1318 1291 37
1319 1291 37
1492 1291 24
1493 1291 24
1498 1291 24
1499 1291 24
1500 1291 24
1501 1291 24
1502 1291 24
1503 1291 24
1504 1291 24
1505 1291 24
1510 1291 24
1511 1291 24
1512 1291 24
1293 1292 37
1294 1292 37
1295 1292 37
1310 1292 22
1311 1292 22
1312 1292 22
1313 1292 49
1314 1292 49
1315 1292 49
1316 1292 37
1317 1292 37
1318 1292 37
1319 1292 37
1492 1292 24
1493 1292 24
1498 1292 24
1499 1292 24
1500 1292 24
1501 1292 24
1502 1292 24
1503 1292 24
1504 1292 24
1505 1292 24
1510 1292 24
1511 1292 24
1512 1292 24
1294 1293 37
1295 1293 37
1313 1293 37
1314 1293 37
1315 1293 37
1316 1293 37
1317 1293 37
1318 1293 37
1319 1293 37
1492 1293 24
1493 1293 24
1498 1293 24
1499 1293 24
1500 1293 24
1501 1293 24
1502 1293 24
1503 1293 24
1504 1293 24
1505 1293 24
1510 1293 24
1511 1293 24
1512 1293 24
1295 1294 37
1313 1294 37
1314 1294 37
1315 1294 37
1316 1294 37
1317 1294 37
1318 1294 37
1319 1294 37
1492 1294 24
1493 1294 24
1498 1294 24
1499 1294 24
1500 1294 24
1501 1294 24
1502 1294 24
1503 1294 24
1504 1294 24
1505 1294 24
1510 1294 24
1511 1294 24
1512 1294 24
1313 1295 37
1314 1295 37
1315 1295 37
1316 1295 37
1317 1295 37
1318 1295 37
1319 1295 37
1492 1295 24
1493 1295 24
1498 1295 24
1499 1295 24
1500 1295 24
1501 1295 24
1502 1295 24
1503 1295 24
1504 1295 24
1505 1295 24
1510 1295 24
1511 1295 24
1512 1295 24
1301 1300 58
1302 1300 58
1303 1300 58
1307 1300 58
1308 1300 58
1309 1300 58
1323 1300 40
1324 1300 40
1325 1300 40
1326 1300 40
1344 1300 40
1345 1300 40
1346 1300 40
1470 1300 26
1471 1300 26
1472 1300 26
1473 1300 26
1474 1300 26
1479 1300 26
1480 1300 26
1529 1300 24
1530 1300 24
1531 1300 24
1532 1300 24
1533 1300 24
1534 1300 38
1535 1300 38
1540 1300 38
1541 1300 38
1542 1300 38
1543 1300 38
1544 1300 38
1550 1300 24
1302 1301 58
1303 1301 58
1307 1301 58
1308 1301 58
1309 1301 58
1323 1301 40
1324 1301 40
1325 1301 40
1326 1301 40
1344 1301 40
1345 1301 40
1346 1301 40
1470 1301 26
1471 1301 26
1472 1301 26
1473 1301 26
1474 1301 26
1479 1301 26
1480 1301 26
1529 1301 24
1530 1301 24
1531 1301 24
1532 1301 24
1533 1301 24
1534 1301 38
1535 1301 38
1540 1301 38
1541 1301 38
1542 1301 38
1543 1301 38
1544 1301 38
1550 1301 24
1303 1302 58
1307 1302 58
1308 1302 58
1309 1302 58
1323 1302 40
1324 1302 40
1325 1302 40
1326 1302 40
1344 1302 40
1345 1302 40
1346 1302 40
1470 1302 26
1471 1302 26
1472 1302 26
1473 1302 26
1474 1302 26
1479 1302 26
1480 1302 26
1529 1302 24
1530 1302 24
1531 1302 24
1532 1302 24
1533 1302 24
1534 1302 38
1535 1302 38
1540 1302 38
1541 1302 38
1542 1302 38
1543 1302 38
1544 1302 38
1550 1302 24
1307 1303 58
1308 1303 58
1309 1303 58
1323 1303 40
1324 1303 40
1325 1303 40
1326 1303 40
1344 1303 40
1345 1303 40
1346 1303 40
1470 1303 26
1471 1303 26
1472 1303 26
1473 1303 26
1474 1303 26
1479 1303 26
1480 1303 26
1529 1303 24
1530 1303 24
1531 1303 24
1532 1303 24
1533 1303 24
1534 1303 38
1535 1303 38
1540 1303 38
1541 1303 38
1542 1303 38
1543 1303 38
1544 1303 38
1550 1303 24
1308 1307 76
1309 1307 76
1310 1307 34
1311 1307 34
1312 1307 34
1323 1307 40
1324 1307 40
1325 1307 40
1326 1307 40
1344 1307 52
1345 1307 52
1346 1307 52
1357 1307 25
1358 1307 25
1359 1307 25
1470 1307 29
1471 1307 29
1472 1307 29
1473 1307 26
1474 1307 26
1479 1307 26
1480 1307 26
1529 1307 24
1530 1307 24
1531 1307 24
1532 1307 24
1533 1307 24
1534 1307 38
1535 1307 38
1540 1307 38
1541 1307 38
1542 1307 38
1543 1307 38
1544 1307 38
1550 1307 24
1309 1308 76
1310 1308 34
1311 1308 34
1312 1308 34
1323 1308 40
1324 1308 40
1325 1308 40
1326 1308 40
1344 1308 52
1345 1308 52
1346 1308 52
1357 1308 25
1358 1308 25
1359 1308 25
1470 1308 29
1471 1308 29
1472 1308 29
1473 1308 26
1474 1308 26
1479 1308 26
1480 1308 26
1529 1308 24
1530 1308 24
1531 1308 24
1532 1308 24
1533 1308 24
1534 1308 38
1535 1308 38
1540 1308 38
1541 1308 38
1542 1308 38
1543 1308 38
1544 1308 38
1550 1308 24
1310 1309 34
1311 1309 34
1312 1309 34
1323 1309 40
1324 1309 40
1325 1309 40
1326 1309 40
1344 1309 52
1345 1309 52
1346 1309 52
1357 1309 25
1358 1309 25
1359 1309 25
1470 1309 29
1471 1309 29
1472 1309 29
1473 1309 26
1474 1309 26
1479 1309 26
1480 1309 26
1529 1309 24
1530 1309 24
1531 1309 24
1532 1309 24
1533 1309 24
1534 1309 38
1535 1309 38
1540 1309 38
1541 1309 38
1542 1309 38
1543 1309 38
1544 1309 38
1550 1309 24
1311 1310 55
1312 1310 55
1313 1310 34
1314 1310 34
1315 1310 34
1344 1310 25
1345 1310 25
1346 1310 25
1357 1310 37
1358 1310 37
1359 1310 37
1370 1310 25
1371 1310 25
1372 1310 25
1312 1311 55
1313 1311 34
1314 1311 34
1315 1311 34
1344 1311 25
1345 1311 25
1346 1311 25
1357 1311 37
1358 1311 37
1359 1311 37
1370 1311 25
1371 1311 25
1372 1311 25
1313 1312 34
1314 1312 34
1315 1312 34
1344 1312 25
1345 1312 25
1346 1312 25
1357 1312 37
1358 1312 37
1359 1312 37
1370 1312 25
1371 1312 25
1372 1312 25
1314 1313 76
1315 1313 74
1316 1313 58
1317 1313 58
1318 1313 58
1319 1313 58
1357 1313 25
1358 1313 25
1359 1313 25
1370 1313 52
1371 1313 52
1372 1313 52
1373 1313 40
1374 1313 40
1375 1313 39
1376 1313 39
1481 1313 26
1482 1313 26
1487 1313 29
1488 1313 29
1489 1313 29
1490 1313 26
1491 1313 26
1492 1313 38
1493 1313 38
1498 1313 38
1499 1313 38
1500 1313 38
1501 1313 38
1502 1313 38
1503 1313 24
1504 1313 24
1505 1313 24
1510 1313 24
1511 1313 24
1512 1313 24
1315 1314 74
1316 1314 58
1317 1314 58
1318 1314 58
1319 1314 58
1357 1314 25
1358 1314 25
1359 1314 25
1370 1314 52
1371 1314 52
1372 1314 52
1373 1314 40
1374 1314 40
1375 1314 39
1376 1314 39
1481 1314 26
1482 1314 26
1487 1314 29
1488 1314 29
1489 1314 29
1490 1314 26
1491 1314 26
1492 1314 38
1493 1314 38
1498 1314 38
1499 1314 38
1500 1314 38
1501 1314 38
1502 1314 38
1503 1314 24
1504 1314 24
1505 1314 24
1510 1314 24
1511 1314 24
1512 1314 24
1316 1315 56
1317 1315 56
1318 1315 56
1319 1315 56
1357 1315 25
1358 1315 25
1359 1315 25
1370 1315 50
1371 1315 50
1372 1315 50
1373 1315 38
1374 1315 38
1481 1315 24
1482 1315 24
1487 1315 27
1488 1315 27
1489 1315 27
1490 1315 24
1491 1315 24
1492 1315 36
1493 1315 36
1498 1315 36
1499 1315 36
1500 1315 36
1501 1315 36
1502 1315 36
1503 1315 24
1504 1315 24
1505 1315 24
1510 1315 24
1511 1315 24
1512 1315 24
1317 1316 58
1318 1316 58
1319 1316 58
1370 1316 40
1371 1316 40
1372 1316 40
1373 1316 40
1374 1316 40
1375 1316 39
1376 1316 39
1481 1316 26
1482 1316 26
1487 1316 26
1488 1316 26
1489 1316 26
1490 1316 26
1491 1316 26
1492 1316 38
1493 1316 38
1498 1316 38
1499 1316 38
1500 1316 38
1501 1316 38
1502 1316 38
1503 1316 24
1504 1316 24
1505 1316 24
1510 1316 24
1511 1316 24
1512 1316 24
1318 1317 58
1319 1317 58
1370 1317 40
1371 1317 40
1372 1317 40
1373 1317 40
1374 1317 40
1375 1317 39
1376 1317 39
1481 1317 26
1482 1317 26
1487 1317 26
1488 1317 26
1489 1317 26
1490 1317 26
1491 1317 26
1492 1317 38
1493 1317 38
1498 1317 38
1499 1317 38
1500 1317 38
1501 1317 38
1502 1317 38
1503 1317 24
1504 1317 24
1505 1317 24
1510 1317 24
1511 1317 24
1512 1317 24
1319 1318 58
1370 1318 40
1371 1318 40
1372 1318 40
1373 1318 40
1374 1318 40
1375 1318 39
1376 1318 39
1481 1318 26
1482 1318 26
1487 1318 26
1488 1318 26
1489 1318 26
1490 1318 26
1491 1318 26
1492 1318 38
1493 1318 38
1498 1318 38
1499 1318 38
1500 1318 38
1501 1318 38
1502 1318 38
1503 1318 24
1504 1318 24
1505 1318 24
1510 1318 24
1511 1318 24
1512 1318 24
1370 1319 40
1371 1319 40
1372 1319 40
1373 1319 40
1374 1319 40
1375 1319 39
1376 1319 39
1481 1319 26
1482 1319 26
1487 1319 26
1488 1319 26
1489 1319 26
1490 1319 26
1491 1319 26
1492 1319 38
1493 1319 38
1498 1319 38
1499 1319 38
1500 1319 38
1501 1319 38
1502 1319 38
1503 1319 24
1504 1319 24
1505 1319 24
1510 1319 24
1511 1319 24
1512 1319 24
1324 1323 61
1325 1323 61
1326 1323 61
1330 1323 40
1331 1323 40
1332 1323 40
1333 1323 40
1344 1323 61
1345 1323 61
1346 1323 61
1347 1323 40
1348 1323 40
1349 1323 40
1456 1323 26
1457 1323 26
1462 1323 26
1463 1323 26
1464 1323 26
1465 1323 26
1466 1323 26
1470 1323 40
1471 1323 40
1472 1323 40
1473 1323 40
1474 1323 40
1479 1323 40
1480 1323 40
1534 1323 26
1535 1323 26
1540 1323 26
1541 1323 26
1542 1323 26
1543 1323 26
1544 1323 26
1325 1324 61
1326 1324 61
1330 1324 40
1331 1324 40
1332 1324 40
1333 1324 40
1344 1324 61
1345 1324 61
1346 1324 61
1347 1324 40
1348 1324 40
1349 1324 40
1456 1324 26
1457 1324 26
1462 1324 26
1463 1324 26
1464 1324 26
1465 1324 26
1466 1324 26
1470 1324 40
1471 1324 40
1472 1324 40
1473 1324 40
1474 1324 40
1479 1324 40
1480 1324 40
1534 1324 26
1535 1324 26
1540 1324 26
1541 1324 26
1542 1324 26
1543 1324 26
1544 1324 26
1326 1325 61
1330 1325 40
1331 1325 40
1332 1325 40
1333 1325 40
1344 1325 61
1345 1325 61
1346 1325 61
1347 1325 40
1348 1325 40
1349 1325 40
1456 1325 26
1457 1325 26
1462 1325 26
1463 1325 26
1464 1325 26
1465 1325 26
1466 1325 26
1470 1325 40
1471 1325 40
1472 1325 40
1473 1325 40
1474 1325 40
1479 1325 40
1480 1325 40
1534 1325 26
1535 1325 26
1540 1325 26
1541 1325 26
1542 1325 26
1543 1325 26
1544 1325 26
1330 1326 40
1331 1326 40
1332 1326 40
1333 1326 40
1344 1326 61
1345 1326 61
1346 1326 61
1347 1326 40
1348 1326 40
1349 1326 40
1456 1326 26
1457 1326 26
1462 1326 26
1463 1326 26
1464 1326 26
1465 1326 26
1466 1326 26
1470 1326 40
1471 1326 40
1472 1326 40
1473 1326 40
1474 1326 40
1479 1326 40
1480 1326 40
1534 1326 26
1535 1326 26
1540 1326 26
1541 1326 26
1542 1326 26
1543 1326 26
1544 1326 26
1331 1330 58
1332 1330 58
1333 1330 58
1337 1330 37
1338 1330 37
1339 1330 37
1344 1330 40
1345 1330 40
1346 1330 40
1347 1330 58
1348 1330 58
1349 1330 58
1350 1330 37
1351 1330 37
1352 1330 37
1432 1330 24
1433 1330 24
1434 1330 24
1435 1330 24
1436 1330 24
1437 1330 24
1456 1330 38
1457 1330 38
1462 1330 38
1463 1330 38
1464 1330 38
1465 1330 38
1466 1330 38
1470 1330 26
1471 1330 26
1472 1330 26
1473 1330 26
1474 1330 26
1479 1330 26
1480 1330 26
1332 1331 58
1333 1331 58
1337 1331 37
1338 1331 37
1339 1331 37
1344 1331 40
1345 1331 40
1346 1331 40
1347 1331 58
1348 1331 58
1349 1331 58
1350 1331 37
1351 1331 37
1352 1331 37
1432 1331 24
1433 1331 24
1434 1331 24
1435 1331 24
1436 1331 24
1437 1331 24
1456 1331 38
1457 1331 38
1462 1331 38
1463 1331 38
1464 1331 38
1465 1331 38
1466 1331 38
1470 1331 26
1471 1331 26
1472 1331 26
1473 1331 26
1474 1331 26
1479 1331 26
1480 1331 26
1333 1332 58
1337 1332 37
1338 1332 37
1339 1332 37
1344 1332 40
1345 1332 40
1346 1332 40
1347 1332 58
1348 1332 58
1349 1332 58
1350 1332 37
1351 1332 37
1352 1332 37
1432 1332 24
1433 1332 24
1434 1332 24
1435 1332 24
1436 1332 24
1437 1332 24
1456 1332 38
1457 1332 38
1462 1332 38
1463 1332 38
1464 1332 38
1465 1332 38
1466 1332 38
1470 1332 26
1471 1332 26
1472 1332 26
1473 1332 26
1474 1332 26
1479 1332 26
1480 1332 26
1337 1333 37
1338 1333 37
1339 1333 37
1344 1333 40
1345 1333 40
1346 1333 40
1347 1333 58
1348 1333 58
1349 1333 58
1350 1333 37
1351 1333 37
1352 1333 37
1432 1333 24
1433 1333 24
1434 1333 24
1435 1333 24
1436 1333 24
1437 1333 24
1456 1333 38
1457 1333 38
1462 1333 38
1463 1333 38
1464 1333 38
1465 1333 38
1466 1333 38
1470 1333 26
1471 1333 26
1472 1333 26
1473 1333 26
1474 1333 26
1479 1333 26
1480 1333 26
1338 1337 37
1339 1337 37
1347 1337 37
1348 1337 37
1349 1337 37
1350 1337 37
1351 1337 37
1352 1337 37
1432 1337 24
1433 1337 24
1434 1337 24
1435 1337 24
1436 1337 24
1437 1337 24
1456 1337 24
1457 1337 24
1462 1337 24
1463 1337 24
1464 1337 24
1465 1337 24
1466 1337 24
1339 1338 37
1347 1338 37
1348 1338 37
1349 1338 37
1350 1338 37
1351 1338 37
1352 1338 37
1432 1338 24
1433 1338 24
1434 1338 24
1435 1338 24
1436 1338 24
1437 1338 24
1456 1338 24
1457 1338 24
1462 1338 24
1463 1338 24
1464 1338 24
1465 1338 24
1466 1338 24
1347 1339 37
1348 1339 37
1349 1339 37
1350 1339 37
1351 1339 37
1352 1339 37
1432 1339 24
1433 1339 24
1434 1339 24
1435 1339 24
1436 1339 24
1437 1339 24
1456 1339 24
1457 1339 24
1462 1339 24
1463 1339 24
1464 1339 24
1465 1339 24
1466 1339 24
1345 1344 82
1346 1344 82
1347 1344 52
1348 1344 52
1349 1344 52
1357 1344 40
1358 1344 40
1359 1344 40
1360 1344 22
1361 1344 22
1362 1344 22
1453 1344 22
1454 1344 22
1455 1344 22
1456 1344 26
1457 1344 26
1462 1344 26
1463 1344 26
1464 1344 38
1465 1344 38
1466 1344 38
1467 1344 25
1468 1344 25
1469 1344 25
1470 1344 52
1471 1344 52
1472 1344 52
1473 1344 40
1474 1344 40
1479 1344 40
1480 1344 40
1534 1344 26
1535 1344 26
1540 1344 26
1541 1344 26
1542 1344 26
1543 1344 26
1544 1344 26
1346 1345 82
1347 1345 52
1348 1345 52
1349 1345 52
1357 1345 40
1358 1345 40
1359 1345 40
1360 1345 22
1361 1345 22
1362 1345 22
1453 1345 22
1454 1345 22
1455 1345 22
1456 1345 26
1457 1345 26
1462 1345 26
1463 1345 26
1464 1345 38
1465 1345 38
1466 1345 38
1467 1345 25
1468 1345 25
1469 1345 25
1470 1345 52
1471 1345 52
1472 1345 52
1473 1345 40
1474 1345 40
1479 1345 40
1480 1345 40
1534 1345 26
1535 1345 26
1540 1345 26
1541 1345 26
1542 1345 26
1543 1345 26
1544 1345 26
1347 1346 52
1348 1346 52
1349 1346 52
1357 1346 40
1358 1346 40
1359 1346 40
1360 1346 22
1361 1346 22
1362 1346 22
1453 1346 22
1454 1346 22
1455 1346 22
1456 1346 26
1457 1346 26
1462 1346 26
1463 1346 26
1464 1346 38
1465 1346 38
1466 1346 38
1467 1346 25
1468 1346 25
1469 1346 25
1470 1346 52
1471 1346 52
1472 1346 52
1473 1346 40
1474 1346 40
1479 1346 40
1480 1346 40
1534 1346 26
1535 1346 26
1540 1346 26
1541 1346 26
1542 1346 26
1543 1346 26
1544 1346 26
1348 1347 70
1349 1347 70
1350 1347 37
1351 1347 37
1352 1347 37
1357 1347 25
1358 1347 25
1359 1347 25
1360 1347 22
1361 1347 22
1362 1347 22
1432 1347 24
1433 1347 24
1434 1347 24
1435 1347 24
1436 1347 24
1437 1347 24
1453 1347 22
1454 1347 22
1455 1347 22
1456 1347 38
1457 1347 38
1462 1347 38
1463 1347 38
1464 1347 50
1465 1347 50
1466 1347 50
1467 1347 22
1468 1347 22
1469 1347 22
1470 1347 38
1471 1347 38
1472 1347 38
1473 1347 26
1474 1347 26
1479 1347 26
1480 1347 26
1349 1348 70
1350 1348 37
1351 1348 37
1352 1348 37
1357 1348 25
1358 1348 25
1359 1348 25
1360 1348 22
1361 1348 22
1362 1348 22
1432 1348 24
1433 1348 24
1434 1348 24
1435 1348 24
1436 1348 24
1437 1348 24
1453 1348 22
1454 1348 22
1455 1348 22
1456 1348 38
1457 1348 38
1462 1348 38
1463 1348 38
1464 1348 50
1465 1348 50
1466 1348 50
1467 1348 22
1468 1348 22
1469 1348 22
1470 1348 38
1471 1348 38
1472 1348 38
1473 1348 26
1474 1348 26
1479 1348 26
1480 1348 26
1350 1349 37
1351 1349 37
1352 1349 37
1357 1349 25
1358 1349 25
1359 1349 25
1360 1349 22
1361 1349 22
1362 1349 22
1432 1349 24
1433 1349 24
1434 1349 24
1435 1349 24
1436 1349 24
1437 1349 24
1453 1349 22
1454 1349 22
1455 1349 22
1456 1349 38
1457 1349 38
1462 1349 38
1463 1349 38
1464 1349 50
1465 1349 50
1466 1349 50
1467 1349 22
1468 1349 22
1469 1349 22
1470 1349 38
1471 1349 38
1472 1349 38
1473 1349 26
1474 1349 26
1479 1349 26
1480 1349 26
1351 1350 37
1352 1350 37
1432 1350 24
1433 1350 24
1434 1350 24
1435 1350 24
1436 1350 24
1437 1350 24
1456 1350 24
1457 1350 24
1462 1350 24
1463 1350 24
1464 1350 24
1465 1350 24
1466 1350 24
1352 1351 37
1432 1351 24
1433 1351 24
1434 1351 24
1435 1351 24
1436 1351 24
1437 1351 24
1456 1351 24
1457 1351 24
1462 1351 24
1463 1351 24
1464 1351 24
1465 1351 24
1466 1351 24
1432 1352 24
1433 1352 24
1434 1352 24
1435 1352 24
1436 1352 24
1437 1352 24
1456 1352 24
1457 1352 24
1462 1352 24
1463 1352 24
1464 1352 24
1465 1352 24
1466 1352 24
1358 1357 61
1359 1357 61
1360 1357 34
1361 1357 34
1362 1357 34
1370 1357 40
1371 1357 40
1372 1357 40
1383 1357 25
1384 1357 25
1385 1357 25
1450 1357 22
1451 1357 22
1452 1357 22
1453 1357 34
1454 1357 34
1455 1357 34
1464 1357 22
1465 1357 22
1466 1357 22
1467 1357 37
1468 1357 37
1469 1357 37
1470 1357 25
1471 1357 25
1472 1357 25
1487 1357 25
1488 1357 25
1489 1357 25
1359 1358 61
1360 1358 34
1361 1358 34
1362 1358 34
1370 1358 40
1371 1358 40
1372 1358 40
1383 1358 25
1384 1358 25
1385 1358 25
1450 1358 22
1451 1358 22
1452 1358 22
1453 1358 34
1454 1358 34
1455 1358 34
1464 1358 22
1465 1358 22
1466 1358 22
1467 1358 37
1468 1358 37
1469 1358 37
1470 1358 25
1471 1358 25
1472 1358 25
1487 1358 25
1488 1358 25
1489 1358 25
1360 1359 34
1361 1359 34
1362 1359 34
1370 1359 40
1371 1359 40
1372 1359 40
1383 1359 25
1384 1359 25
1385 1359 25
1450 1359 22
1451 1359 22
1452 1359 22
1453 1359 34
1454 1359 34
1455 1359 34
1464 1359 22
1465 1359 22
1466 1359 22
1467 1359 37
1468 1359 37
1469 1359 37
1470 1359 25
1471 1359 25
1472 1359 25
1487 1359 25
1488 1359 25
1489 1359 25
1361 1360 34
1362 1360 34
1370 1360 22
1371 1360 22
1372 1360 22
1383 1360 22
1384 1360 22
1385 1360 22
1450 1360 22
1451 1360 22
1452 1360 22
1453 1360 34
1454 1360 34
1455 1360 34
1464 1360 22
1465 1360 22
1466 1360 22
1467 1360 34
1468 1360 34
1469 1360 34
1470 1360 22
1471 1360 22
1472 1360 22
1487 1360 22
1488 1360 22
1489 1360 22
1362 1361 34
1370 1361 22
1371 1361 22
1372 1361 22
1383 1361 22
1384 1361 22
1385 1361 22
1450 1361 22
1451 1361 22
1452 1361 22
1453 1361 34
1454 1361 34
1455 1361 34
1464 1361 22
1465 1361 22
1466 1361 22
1467 1361 34
1468 1361 34
1469 1361 34
1470 1361 22
1471 1361 22
1472 1361 22
1487 1361 22
1488 1361 22
1489 1361 22
1370 1362 22
1371 1362 22
1372 1362 22
1383 1362 22
1384 1362 22
1385 1362 22
1450 1362 22
1451 1362 22
1452 1362 22
1453 1362 34
1454 1362 34
1455 1362 34
1464 1362 22
1465 1362 22
1466 1362 22
1467 1362 34
1468 1362 34
1469 1362 34
1470 1362 22
1471 1362 22
1472 1362 22
1487 1362 22
1488 1362 22
1489 1362 22
1371 1370 82
1372 1370 82
1373 1370 61
1374 1370 61
1375 1370 60
1376 1370 60
1383 1370 52
1384 1370 52
1385 1370 52
1388 1370 40
1389 1370 40
1399 1370 40
1400 1370 40
1442 1370 26
1443 1370 26
1444 1370 26
1445 1370 26
1450 1370 38
1451 1370 38
1452 1370 38
1453 1370 22
1454 1370 22
1455 1370 22
1467 1370 25
1468 1370 25
1469 1370 25
1481 1370 40
1482 1370 40
1487 1370 52
1488 1370 52
1489 1370 52
1490 1370 40
1491 1370 40
1492 1370 26
1493 1370 26
1498 1370 26
1499 1370 26
1500 1370 26
1501 1370 26
1502 1370 26
1372 1371 82
1373 1371 61
1374 1371 61
1375 1371 60
1376 1371 60
1383 1371 52
1384 1371 52
1385 1371 52
1388 1371 40
1389 1371 40
1399 1371 40
1400 1371 40
1442 1371 26
1443 1371 26
1444 1371 26
1445 1371 26
1450 1371 38
1451 1371 38
1452 1371 38
1453 1371 22
1454 1371 22
1455 1371 22
1467 1371 25
1468 1371 25
1469 1371 25
1481 1371 40
1482 1371 40
1487 1371 52
1488 1371 52
1489 1371 52
1490 1371 40
1491 1371 40
1492 1371 26
1493 1371 26
1498 1371 26
1499 1371 26
1500 1371 26
1501 1371 26
1502 1371 26
1373 1372 61
1374 1372 61
1375 1372 60
1376 1372 60
1383 1372 52
1384 1372 52
1385 1372 52
1388 1372 40
1389 1372 40
1399 1372 40
1400 1372 40
1442 1372 26
1443 1372 26
1444 1372 26
1445 1372 26
1450 1372 38
1451 1372 38
1452 1372 38
1453 1372 22
1454 1372 22
1455 1372 22
1467 1372 25
1468 1372 25
1469 1372 25
1481 1372 40
1482 1372 40
1487 1372 52
1488 1372 52
1489 1372 52
1490 1372 40
1491 1372 40
1492 1372 26
1493 1372 26
1498 1372 26
1499 1372 26
1500 1372 26
1501 1372 26
1502 1372 26
1374 1373 61
1375 1373 60
1376 1373 60
1383 1373 40
1384 1373 40
1385 1373 40
1388 1373 40
1389 1373 40
1399 1373 40
1400 1373 40
1442 1373 26
1443 1373 26
1444 1373 26
1445 1373 26
1450 1373 26
1451 1373 26
1452 1373 26
1481 1373 40
1482 1373 40
1487 1373 40
1488 1373 40
1489 1373 40
1490 1373 40
1491 1373 40
1492 1373 26
1493 1373 26
1498 1373 26
1499 1373 26
1500 1373 26
1501 1373 26
1502 1373 26
1375 1374 60
1376 1374 60
1383 1374 40
1384 1374 40
1385 1374 40
1388 1374 40
1389 1374 40
1399 1374 40
1400 1374 40
1442 1374 26
1443 1374 26
1444 1374 26
1445 1374 26
1450 1374 26
1451 1374 26
1452 1374 26
1481 1374 40
1482 1374 40
1487 1374 40
1488 1374 40
1489 1374 40
1490 1374 40
1491 1374 40
1492 1374 26
1493 1374 26
1498 1374 26
1499 1374 26
1500 1374 26
1501 1374 26
1502 1374 26
1376 1375 60
1383 1375 40
1384 1375 40
1385 1375 40
1388 1375 40
1389 1375 40
1399 1375 40
1400 1375 40
1442 1375 26
1443 1375 26
1444 1375 26
1445 1375 26
1450 1375 26
1451 1375 26
1452 1375 26
1481 1375 39
1482 1375 39
1487 1375 39
1488 1375 39
1489 1375 39
1490 1375 39
1491 1375 39
1492 1375 25
1493 1375 25
1498 1375 25
1499 1375 25
1500 1375 25
1501 1375 25
1502 1375 25
1383 1376 40
1384 1376 40
1385 1376 40
1388 1376 40
1389 1376 40
1399 1376 40
1400 1376 40
1442 1376 26
1443 1376 26
1444 1376 26
1445 1376 26
1450 1376 26
1451 1376 26
1452 1376 26
1481 1376 39
1482 1376 39
1487 1376 39
1488 1376 39
1489 1376 39
1490 1376 39
1491 1376 39
1492 1376 25
1493 1376 25
1498 1376 25
1499 1376 25
1500 1376 25
1501 1376 25
1502 1376 25
1381 1380 37
1382 1380 37
1383 1380 37
1384 1380 37
1385 1380 37
1386 1380 37
1387 1380 37
1388 1380 37
1389 1380 37
1390 1380 37
1399 1380 37
1400 1380 37
1419 1380 24
1420 1380 24
1421 1380 24
1426 1380 24
1427 1380 24
1428 1380 24
1442 1380 24
1443 1380 24
1444 1380 24
1445 1380 24
1450 1380 24
1451 1380 24
1452 1380 24
1382 1381 37
1383 1381 37
1384 1381 37
1385 1381 37
1386 1381 37
1387 1381 37
1388 1381 37
1389 1381 37
1390 1381 37
1399 1381 37
1400 1381 37
1419 1381 24
1420 1381 24
1421 1381 24
1426 1381 24
1427 1381 24
1428 1381 24
1442 1381 24
1443 1381 24
1444 1381 24
1445 1381 24
1450 1381 24
1451 1381 24
1452 1381 24
1383 1382 37
1384 1382 37
1385 1382 37
1386 1382 37
1387 1382 37
1388 1382 37
1389 1382 37
1390 1382 37
1399 1382 37
1400 1382 37
1419 1382 24
1420 1382 24
1421 1382 24
1426 1382 24
1427 1382 24
1428 1382 24
1442 1382 24
1443 1382 24
1444 1382 24
1445 1382 24
1450 1382 24
1451 1382 24
1452 1382 24
1384 1383 70
1385 1383 70
1386 1383 37
1387 1383 37
1388 1383 58
1389 1383 58
1390 1383 37
1399 1383 58
1400 1383 58
1419 1383 24
1420 1383 24
1421 1383 24
1426 1383 24
1427 1383 24
1428 1383 24
1442 1383 38
1443 1383 38
1444 1383 38
1445 1383 38
1450 1383 50
1451 1383 50
1452 1383 50
1453 1383 22
1454 1383 22
1455 1383 22
1467 1383 22
1468 1383 22
1469 1383 22
1481 1383 26
1482 1383 26
1487 1383 38
1488 1383 38
1489 1383 38
1490 1383 26
1491 1383 26
1385 1384 70
1386 1384 37
1387 1384 37
1388 1384 58
1389 1384 58
1390 1384 37
1399 1384 58
1400 1384 58
1419 1384 24
1420 1384 24
1421 1384 24
1426 1384 24
1427 1384 24
1428 1384 24
1442 1384 38
1443 1384 38
1444 1384 38
1445 1384 38
1450 1384 50
1451 1384 50
1452 1384 50
1453 1384 22
1454 1384 22
1455 1384 22
1467 1384 22
1468 1384 22
1469 1384 22
1481 1384 26
1482 1384 26
1487 1384 38
1488 1384 38
1489 1384 38
1490 1384 26
1491 1384 26
1386 1385 37
1387 1385 37
1388 1385 58
1389 1385 58
1390 1385 37
1399 1385 58
1400 1385 58
1419 1385 24
1420 1385 24
1421 1385 24
1426 1385 24
1427 1385 24
1428 1385 24
1442 1385 38
1443 1385 38
1444 1385 38
1445 1385 38
1450 1385 50
1451 1385 50
1452 1385 50
1453 1385 22
1454 1385 22
1455 1385 22
1467 1385 22
1468 1385 22
1469 1385 22
1481 1385 26
1482 1385 26
1487 1385 38
1488 1385 38
1489 1385 38
1490 1385 26
1491 1385 26
1387 1386 37
1388 1386 37
1389 1386 37
1390 1386 37
1399 1386 37
1400 1386 37
1419 1386 24
1420 1386 24
1421 1386 24
1426 1386 24
1427 1386 24
1428 1386 24
1442 1386 24
1443 1386 24
1444 1386 24
1445 1386 24
1450 1386 24
1451 1386 24
1452 1386 24
1388 1387 37
1389 1387 37
1390 1387 37
1399 1387 37
1400 1387 37
1419 1387 24
1420 1387 24
1421 1387 24
1426 1387 24
1427 1387 24
1428 1387 24
1442 1387 24
1443 1387 24
1444 1387 24
1445 1387 24
1450 1387 24
1451 1387 24
1452 1387 24
1389 1388 58
1390 1388 37
1399 1388 58
1400 1388 58
1419 1388 24
1420 1388 24
1421 1388 24
1426 1388 24
1427 1388 24
1428 1388 24
1442 1388 38
1443 1388 38
1444 1388 38
1445 1388 38
1450 1388 38
1451 1388 38
1452 1388 38
1481 1388 26
1482 1388 26
1487 1388 26
1488 1388 26
1489 1388 26
1490 1388 26
1491 1388 26
1390 1389 37
1399 1389 58
1400 1389 58
1419 1389 24
1420 1389 24
1421 1389 24
1426 1389 24
1427 1389 24
1428 1389 24
1442 1389 38
1443 1389 38
1444 1389 38
1445 1389 38
1450 1389 38
1451 1389 38
1452 1389 38
1481 1389 26
1482 1389 26
1487 1389 26
1488 1389 26
1489 1389 26
1490 1389 26
1491 1389 26
1399 1390 37
1400 1390 37
1419 1390 24
1420 1390 24
1421 1390 24
1426 1390 24
1427 1390 24
1428 1390 24
1442 1390 24
1443 1390 24
1444 1390 24
1445 1390 24
1450 1390 24
1451 1390 24
1452 1390 24
1400 1399 58
1419 1399 24
1420 1399 24
1421 1399 24
1426 1399 24
1427 1399 24
1428 1399 24
1442 1399 38
1443 1399 38
1444 1399 38
1445 1399 38
1450 1399 38
1451 1399 38
1452 1399 38
1481 1399 26
1482 1399 26
1487 1399 26
1488 1399 26
1489 1399 26
1490 1399 26
1491 1399 26
1419 1400 24
1420 1400 24
1421 1400 24
1426 1400 24
1427 1400 24
1428 1400 24
1442 1400 38
1443 1400 38
1444 1400 38
1445 1400 38
1450 1400 38
1451 1400 38
1452 1400 38
1481 1400 26
1482 1400 26
1487 1400 26
1488 1400 26
1489 1400 26
1490 1400 26
1491 1400 26
1420 1419 37
1421 1419 37
1426 1419 37
1427 1419 37
1428 1419 37
1442 1419 37
1443 1419 37
1444 1419 37
1445 1419 37
1450 1419 37
1451 1419 37
1452 1419 37
1629 1419 24
1636 1419 24
1637 1419 24
1638 1419 24
1648 1419 24
1649 1419 24
1719 1419 24
1720 1419 24
1721 1419 24
1730 1419 24
1731 1419 24
1737 1419 24
1738 1419 24
1421 1420 37
1426 1420 37
1427 1420 37
1428 1420 37
1442 1420 37
1443 1420 37
1444 1420 37
1445 1420 37
1450 1420 37
1451 1420 37
1452 1420 37
1629 1420 24
1636 1420 24
1637 1420 24
1638 1420 24
1648 1420 24
1649 1420 24
1719 1420 24
1720 1420 24
1721 1420 24
1730 1420 24
1731 1420 24
1737 1420 24
1738 1420 24
1426 1421 37
1427 1421 37
1428 1421 37
1442 1421 37
1443 1421 37
1444 1421 37
1445 1421 37
1450 1421 37
1451 1421 37
1452 1421 37
1629 1421 24
1636 1421 24
1637 1421 24
1638 1421 24
1648 1421 24
1649 1421 24
1719 1421 24
1720 1421 24
1721 1421 24
1730 1421 24
1731 1421 24
1737 1421 24
1738 1421 24
1427 1426 37
1428 1426 37
1442 1426 37
1443 1426 37
1444 1426 37
1445 1426 37
1450 1426 37
1451 1426 37
1452 1426 37
1629 1426 24
1636 1426 24
1637 1426 24
1638 1426 24
1648 1426 24
1649 1426 24
1719 1426 24
1720 1426 24
1721 1426 24
1730 1426 24
1731 1426 24
1737 1426 24
1738 1426 24
1428 1427 37
1442 1427 37
1443 1427 37
1444 1427 37
1445 1427 37
1450 1427 37
1451 1427 37
1452 1427 37
1629 1427 24
1636 1427 24
1637 1427 24
1638 1427 24
1648 1427 24
1649 1427 24
1719 1427 24
1720 1427 24
1721 1427 24
1730 1427 24
1731 1427 24
1737 1427 24
1738 1427 24
1442 1428 37
1443 1428 37
1444 1428 37
1445 1428 37
1450 1428 37
1451 1428 37
1452 1428 37
1629 1428 24
1636 1428 24
1637 1428 24
1638 1428 24
1648 1428 24
1649 1428 24
1719 1428 24
1720 1428 24
1721 1428 24
1730 1428 24
1731 1428 24
1737 1428 24
1738 1428 24
1433 1432 37
1434 1432 37
1435 1432 37
1436 1432 37
1437 1432 37
1456 1432 37
1457 1432 37
1462 1432 37
1463 1432 37
1464 1432 37
1465 1432 37
1466 1432 37
1579 1432 24
1580 1432 24
1581 1432 24
1599 1432 24
1600 1432 24
1601 1432 24
1658 1432 24
1659 1432 24
1660 1432 24
1661 1432 24
1665 1432 24
1666 1432 24
1667 1432 24
1434 1433 37
1435 1433 37
1436 1433 37
1437 1433 37
1456 1433 37
1457 1433 37
1462 1433 37
1463 1433 37
1464 1433 37
1465 1433 37
1466 1433 37
1579 1433 24
1580 1433 24
1581 1433 24
1599 1433 24
1600 1433 24
1601 1433 24
1658 1433 24
1659 1433 24
1660 1433 24
1661 1433 24
1665 1433 24
1666 1433 24
1667 1433 24
1435 1434 37
1436 1434 37
1437 1434 37
1456 1434 37
1457 1434 37
1462 1434 37
1463 1434 37
1464 1434 37
1465 1434 37
1466 1434 37
1579 1434 24
1580 1434 24
1581 1434 24
1599 1434 24
1600 1434 24
1601 1434 24
1658 1434 24
1659 1434 24
1660 1434 24
1661 1434 24
1665 1434 24
1666 1434 24
1667 1434 24
1436 1435 37
1437 1435 37
1456 1435 37
1457 1435 37
1462 1435 37
1463 1435 37
1464 1435 37
1465 1435 37
1466 1435 37
1579 1435 24
1580 1435 24
1581 1435 24
1599 1435 24
1600 1435 24
1601 1435 24
1658 1435 24
1659 1435 24
1660 1435 24
1661 1435 24
1665 1435 24
1666 1435 24
1667 1435 24
1437 1436 37
1456 1436 37
1457 1436 37
1462 1436 37
1463 1436 37
1464 1436 37
1465 1436 37
1466 1436 37
1579 1436 24
1580 1436 24
1581 1436 24
1599 1436 24
1600 1436 24
1601 1436 24
1658 1436 24
1659 1436 24
1660 1436 24
1661 1436 24
1665 1436 24
1666 1436 24
1667 1436 24
1456 1437 37
1457 1437 37
1462 1437 37
1463 1437 37
1464 1437 37
1465 1437 37
1466 1437 37
1579 1437 24
1580 1437 24
1581 1437 24
1599 1437 24
1600 1437 24
1601 1437 24
1658 1437 24
1659 1437 24
1660 1437 24
1661 1437 24
1665 1437 24
1666 1437 24
1667 1437 24
1443 1442 58
1444 1442 58
1445 1442 58
1450 1442 58
1451 1442 58
1452 1442 58
1481 1442 40
1482 1442 40
1487 1442 40
1488 1442 40
1489 1442 40
1490 1442 40
1491 1442 40
1629 1442 24
1636 1442 24
1637 1442 24
1638 1442 24
1648 1442 24
1649 1442 24
1719 1442 38
1720 1442 38
1721 1442 38
1730 1442 38
1731 1442 38
1737 1442 38
1738 1442 38
1770 1442 26
1771 1442 26
1777 1442 26
1778 1442 26
1790 1442 26
1791 1442 26
1792 1442 26
1444 1443 58
1445 1443 58
1450 1443 58
1451 1443 58
1452 1443 58
1481 1443 40
1482 1443 40
1487 1443 40
1488 1443 40
1489 1443 40
1490 1443 40
1491 1443 40
1629 1443 24
1636 1443 24
1637 1443 24
1638 1443 24
1648 1443 24
1649 1443 24
1719 1443 38
1720 1443 38
1721 1443 38
1730 1443 38
1731 1443 38
1737 1443 38
1738 1443 38
1770 1443 26
1771 1443 26
1777 1443 26
1778 1443 26
1790 1443 26
1791 1443 26
1792 1443 26
1445 1444 58
1450 1444 58
1451 1444 58
1452 1444 58
1481 1444 40
1482 1444 40
1487 1444 40
1488 1444 40
1489 1444 40
1490 1444 40
1491 1444 40
1629 1444 24
1636 1444 24
1637 1444 24
1638 1444 24
1648 1444 24
1649 1444 24
1719 1444 38
1720 1444 38
1721 1444 38
1730 1444 38
1731 1444 38
1737 1444 38
1738 1444 38
1770 1444 26
1771 1444 26
1777 1444 26
1778 1444 26
1790 1444 26
1791 1444 26
1792 1444 26
1450 1445 58
1451 1445 58
1452 1445 58
1481 1445 40
1482 1445 40
1487 1445 40
1488 1445 40
1489 1445 40
1490 1445 40
1491 1445 40
1629 1445 24
1636 1445 24
1637 1445 24
1638 1445 24
1648 1445 24
1649 1445 24
1719 1445 38
1720 1445 38
1721 1445 38
1730 1445 38
1731 1445 38
1737 1445 38
1738 1445 38
1770 1445 26
1771 1445 26
1777 1445 26
1778 1445 26
1790 1445 26
1791 1445 26
1792 1445 26
1451 1450 76
1452 1450 76
1453 1450 34
1454 1450 34
1455 1450 34
1467 1450 34
1468 1450 34
1469 1450 34
1481 1450 40
1482 1450 40
1487 1450 58
1488 1450 58
1489 1450 58
1490 1450 40
1491 1450 40
1629 1450 24
1636 1450 27
1637 1450 27
1638 1450 27
1648 1450 24
1649 1450 24
1692 1450 25
1693 1450 25
1694 1450 25
1719 1450 50
1720 1450 50
1721 1450 50
1730 1450 38
1731 1450 38
1737 1450 38
1738 1450 38
1770 1450 26
1771 1450 26
1777 1450 26
1778 1450 26
1790 1450 38
1791 1450 38
1792 1450 38
1796 1450 22
1797 1450 22
1798 1450 22
1452 1451 76
1453 1451 34
1454 1451 34
1455 1451 34
1467 1451 34
1468 1451 34
1469 1451 34
1481 1451 40
1482 1451 40
1487 1451 58
1488 1451 58
1489 1451 58
1490 1451 40
1491 1451 40
1629 1451 24
1636 1451 27
1637 1451 27
1638 1451 27
1648 1451 24
1649 1451 24
1692 1451 25
1693 1451 25
1694 1451 25
1719 1451 50
1720 1451 50
1721 1451 50
1730 1451 38
1731 1451 38
1737 1451 38
1738 1451 38
1770 1451 26
1771 1451 26
1777 1451 26
1778 1451 26
1790 1451 38
1791 1451 38
1792 1451 38
1796 1451 22
1797 1451 22
1798 1451 22
1453 1452 34
1454 1452 34
1455 1452 34
1467 1452 34
1468 1452 34
1469 1452 34
1481 1452 40
1482 1452 40
1487 1452 58
1488 1452 58
1489 1452 58
1490 1452 40
1491 1452 40
1629 1452 24
1636 1452 27
1637 1452 27
1638 1452 27
1648 1452 24
1649 1452 24
1692 1452 25
1693 1452 25
1694 1452 25
1719 1452 50
1720 1452 50
1721 1452 50
1730 1452 38
1731 1452 38
1737 1452 38
1738 1452 38
1770 1452 26
1771 1452 26
1777 1452 26
1778 1452 26
1790 1452 38
1791 1452 38
1792 1452 38
1796 1452 22
1797 1452 22
1798 1452 22
1454 1453 46
1455 1453 46
1464 1453 22
1465 1453 22
1466 1453 22
1467 1453 46
1468 1453 46
1469 1453 46
1470 1453 22
1471 1453 22
1472 1453 22
1487 1453 34
1488 1453 34
1489 1453 34
1692 1453 22
1693 1453 22
1694 1453 22
1719 1453 22
1720 1453 22
1721 1453 22
1790 1453 22
1791 1453 22
1792 1453 22
1796 1453 22
1797 1453 22
1798 1453 22
1455 1454 46
1464 1454 22
1465 1454 22
1466 1454 22
1467 1454 46
1468 1454 46
1469 1454 46
1470 1454 22
1471 1454 22
1472 1454 22
1487 1454 34
1488 1454 34
1489 1454 34
1692 1454 22
1693 1454 22
1694 1454 22
1719 1454 22
1720 1454 22
1721 1454 22
1790 1454 22
1791 1454 22
1792 1454 22
1796 1454 22
1797 1454 22
1798 1454 22
1464 1455 22
1465 1455 22
1466 1455 22
1467 1455 46
1468 1455 46
1469 1455 46
1470 1455 22
1471 1455 22
1472 1455 22
1487 1455 34
1488 1455 34
1489 1455 34
1692 1455 22
1693 1455 22
1694 1455 22
1719 1455 22
1720 1455 22
1721 1455 22
1790 1455 22
1791 1455 22
1792 1455 22
1796 1455 22
1797 1455 22
1798 1455 22
1457 1456 58
1462 1456 58
1463 1456 58
1464 1456 58
1465 1456 58
1466 1456 58
1470 1456 40
1471 1456 40
1472 1456 40
1473 1456 40
1474 1456 40
1479 1456 40
1480 1456 40
1579 1456 24
1580 1456 24
1581 1456 24
1599 1456 24
1600 1456 24
1601 1456 24
1658 1456 38
1659 1456 38
1660 1456 38
1661 1456 38
1665 1456 38
1666 1456 38
1667 1456 38
1802 1456 26
1803 1456 26
1817 1456 26
1818 1456 26
1819 1456 26
1827 1456 26
1828 1456 26
1462 1457 58
1463 1457 58
1464 1457 58
1465 1457 58
1466 1457 58
1470 1457 40
1471 1457 40
1472 1457 40
1473 1457 40
1474 1457 40
1479 1457 40
1480 1457 40
1579 1457 24
1580 1457 24
1581 1457 24
1599 1457 24
1600 1457 24
1601 1457 24
1658 1457 38
1659 1457 38
1660 1457 38
1661 1457 38
1665 1457 38
1666 1457 38
1667 1457 38
1802 1457 26
1803 1457 26
1817 1457 26
1818 1457 26
1819 1457 26
1827 1457 26
1828 1457 26
1463 1462 58
1464 1462 58
1465 1462 58
1466 1462 58
1470 1462 40
1471 1462 40
1472 1462 40
1473 1462 40
1474 1462 40
1479 1462 40
1480 1462 40
1579 1462 24
1580 1462 24
1581 1462 24
1599 1462 24
1600 1462 24
1601 1462 24
1658 1462 38
1659 1462 38
1660 1462 38
1661 1462 38
1665 1462 38
1666 1462 38
1667 1462 38
1802 1462 26
1803 1462 26
1817 1462 26
1818 1462 26
1819 1462 26
1827 1462 26
1828 1462 26
1464 1463 58
1465 1463 58
1466 1463 58
1470 1463 40
1471 1463 40
1472 1463 40
1473 1463 40
1474 1463 40
1479 1463 40
1480 1463 40
1579 1463 24
1580 1463 24
1581 1463 24
1599 1463 24
1600 1463 24
1601 1463 24
1658 1463 38
1659 1463 38
1660 1463 38
1661 1463 38
1665 1463 38
1666 1463 38
1667 1463 38
1802 1463 26
1803 1463 26
1817 1463 26
1818 1463 26
1819 1463 26
1827 1463 26
1828 1463 26
1465 1464 70
1466 1464 70
1467 1464 22
1468 1464 22
1469 1464 22
1470 1464 52
1471 1464 52
1472 1464 52
1473 1464 40
1474 1464 40
1479 1464 40
1480 1464 40
1579 1464 24
1580 1464 24
1581 1464 24
1599 1464 24
1600 1464 24
1601 1464 24
1658 1464 38
1659 1464 38
1660 1464 38
1661 1464 38
1665 1464 38
1666 1464 38
1667 1464 38
1802 1464 26
1803 1464 26
1817 1464 26
1818 1464 26
1819 1464 26
1827 1464 26
1828 1464 26
1466 1465 70
1467 1465 22
1468 1465 22
1469 1465 22
1470 1465 52
1471 1465 52
1472 1465 52
1473 1465 40
1474 1465 40
1479 1465 40
1480 1465 40
1579 1465 24
1580 1465 24
1581 1465 24
1599 1465 24
1600 1465 24
1601 1465 24
1658 1465 38
1659 1465 38
1660 1465 38
1661 1465 38
1665 1465 38
1666 1465 38
1667 1465 38
1802 1465 26
1803 1465 26
1817 1465 26
1818 1465 26
1819 1465 26
1827 1465 26
1828 1465 26
1467 1466 22
1468 1466 22
1469 1466 22
1470 1466 52
1471 1466 52
1472 1466 52
1473 1466 40
1474 1466 40
1479 1466 40
1480 1466 40
1579 1466 24
1580 1466 24
1581 1466 24
1599 1466 24
1600 1466 24
1601 1466 24
1658 1466 38
1659 1466 38
1660 1466 38
1661 1466 38
1665 1466 38
1666 1466 38
1667 1466 38
1802 1466 26
1803 1466 26
1817 1466 26
1818 1466 26
1819 1466 26
1827 1466 26
1828 1466 26
1468 1467 49
1469 1467 49
1470 1467 22
1471 1467 22
1472 1467 22
1487 1467 34
1488 1467 34
1489 1467 34
1692 1467 22
1693 1467 22
1694 1467 22
1719 1467 22
1720 1467 22
1721 1467 22
1790 1467 22
1791 1467 22
1792 1467 22
1796 1467 22
1797 1467 22
1798 1467 22
1469 1468 49
1470 1468 22
1471 1468 22
1472 1468 22
1487 1468 34
1488 1468 34
1489 1468 34
1692 1468 22
1693 1468 22
1694 1468 22
1719 1468 22
1720 1468 22
1721 1468 22
1790 1468 22
1791 1468 22
1792 1468 22
1796 1468 22
1797 1468 22
1798 1468 22
1470 1469 22
1471 1469 22
1472 1469 22
1487 1469 34
1488 1469 34
1489 1469 34
1692 1469 22
1693 1469 22
1694 1469 22
1719 1469 22
1720 1469 22
1721 1469 22
1790 1469 22
1791 1469 22
1792 1469 22
1796 1469 22
1797 1469 22
1798 1469 22
1471 1470 73
1472 1470 73
1473 1470 61
1474 1470 61
1479 1470 61
1480 1470 61
1534 1470 40
1535 1470 40
1540 1470 40
1541 1470 40
1542 1470 40
1543 1470 40
1544 1470 40
1658 1470 26
1659 1470 26
1660 1470 26
1661 1470 26
1665 1470 26
1666 1470 26
1667 1470 26
1802 1470 40
1803 1470 40
1817 1470 40
1818 1470 40
1819 1470 40
1827 1470 40
1828 1470 40
1935 1470 26
1936 1470 26
1937 1470 26
1953 1470 26
1954 1470 26
1992 1470 26
1993 1470 26
1472 1471 73
1473 1471 61
1474 1471 61
1479 1471 61
1480 1471 61
1534 1471 40
1535 1471 40
1540 1471 40
1541 1471 40
1542 1471 40
1543 1471 40
1544 1471 40
1658 1471 26
1659 1471 26
1660 1471 26
1661 1471 26
1665 1471 26
1666 1471 26
1667 1471 26
1802 1471 40
1803 1471 40
1817 1471 40
1818 1471 40
1819 1471 40
1827 1471 40
1828 1471 40
1935 1471 26
1936 1471 26
1937 1471 26
1953 1471 26
1954 1471 26
1992 1471 26
1993 1471 26
1473 1472 61
1474 1472 61
1479 1472 61
1480 1472 61
1534 1472 40
1535 1472 40
1540 1472 40
1541 1472 40
1542 1472 40
1543 1472 40
1544 1472 40
1658 1472 26
1659 1472 26
1660 1472 26
1661 1472 26
1665 1472 26
1666 1472 26
1667 1472 26
1802 1472 40
1803 1472 40
1817 1472 40
1818 1472 40
1819 1472 40
1827 1472 40
1828 1472 40
1935 1472 26
1936 1472 26
1937 1472 26
1953 1472 26
1954 1472 26
1992 1472 26
1993 1472 26
1474 1473 61
1479 1473 61
1480 1473 61
1534 1473 40
1535 1473 40
1540 1473 40
1541 1473 40
1542 1473 40
1543 1473 40
1544 1473 40
1658 1473 26
1659 1473 26
1660 1473 26
1661 1473 26
1665 1473 26
1666 1473 26
1667 1473 26
1802 1473 40
1803 1473 40
1817 1473 40
1818 1473 40
1819 1473 40
1827 1473 40
1828 1473 40
1935 1473 26
1936 1473 26
1937 1473 26
1953 1473 26
1954 1473 26
1992 1473 26
1993 1473 26
1479 1474 61
1480 1474 61
1534 1474 40
1535 1474 40
1540 1474 40
1541 1474 40
1542 1474 40
1543 1474 40
1544 1474 40
1658 1474 26
1659 1474 26
1660 1474 26
1661 1474 26
1665 1474 26
1666 1474 26
1667 1474 26
1802 1474 40
1803 1474 40
1817 1474 40
1818 1474 40
1819 1474 40
1827 1474 40
1828 1474 40
1935 1474 26
1936 1474 26
1937 1474 26
1953 1474 26
1954 1474 26
1992 1474 26
1993 1474 26
1480 1479 61
1534 1479 40
1535 1479 40
1540 1479 40
1541 1479 40
1542 1479 40
1543 1479 40
1544 1479 40
1658 1479 26
1659 1479 26
1660 1479 26
1661 1479 26
1665 1479 26
1666 1479 26
1667 1479 26
1802 1479 40
1803 1479 40
1817 1479 40
1818 1479 40
1819 1479 40
1827 1479 40
1828 1479 40
1935 1479 26
1936 1479 26
1937 1479 26
1953 1479 26
1954 1479 26
1992 1479 26
1993 1479 26
1534 1480 40
1535 1480 40
1540 1480 40
1541 1480 40
1542 1480 40
1543 1480 40
1544 1480 40
1658 1480 26
1659 1480 26
1660 1480 26
1661 1480 26
1665 1480 26
1666 1480 26
1667 1480 26
1802 1480 40
1803 1480 40
1817 1480 40
1818 1480 40
1819 1480 40
1827 1480 40
1828 1480 40
1935 1480 26
1936 1480 26
1937 1480 26
1953 1480 26
1954 1480 26
1992 1480 26
1993 1480 26
1482 1481 61
1487 1481 61
1488 1481 61
1489 1481 61
1490 1481 61
1491 1481 61
1492 1481 40
1493 1481 40
1498 1481 40
1499 1481 40
1500 1481 40
1501 1481 40
1502 1481 40
1719 1481 26
1720 1481 26
1721 1481 26
1730 1481 26
1731 1481 26
1737 1481 26
1738 1481 26
1770 1481 40
1771 1481 40
1777 1481 40
1778 1481 40
1790 1481 40
1791 1481 40
1792 1481 40
1834 1481 26
1835 1481 26
1853 1481 26
1854 1481 26
1876 1481 26
1877 1481 26
1878 1481 26
1487 1482 61
1488 1482 61
1489 1482 61
1490 1482 61
1491 1482 61
1492 1482 40
1493 1482 40
1498 1482 40
1499 1482 40
1500 1482 40
1501 1482 40
1502 1482 40
1719 1482 26
1720 1482 26
1721 1482 26
1730 1482 26
1731 1482 26
1737 1482 26
1738 1482 26
1770 1482 40
1771 1482 40
1777 1482 40
1778 1482 40
1790 1482 40
1791 1482 40
1792 1482 40
1834 1482 26
1835 1482 26
1853 1482 26
1854 1482 26
1876 1482 26
1877 1482 26
1878 1482 26
1488 1487 79
1489 1487 79
1490 1487 61
1491 1487 61
1492 1487 40
1493 1487 40
1498 1487 40
1499 1487 40
1500 1487 40
1501 1487 40
1502 1487 40
1692 1487 22
1693 1487 22
1694 1487 22
1719 1487 38
1720 1487 38
1721 1487 38
1730 1487 26
1731 1487 26
1737 1487 26
1738 1487 26
1770 1487 40
1771 1487 40
1777 1487 40
1778 1487 40
1790 1487 52
1791 1487 52
1792 1487 52
1796 1487 25
1797 1487 25
1798 1487 25
1834 1487 26
1835 1487 26
1853 1487 26
1854 1487 26
1876 1487 29
1877 1487 29
1878 1487 29
1489 1488 79
1490 1488 61
1491 1488 61
1492 1488 40
1493 1488 40
1498 1488 40
1499 1488 40
1500 1488 40
1501 1488 40
1502 1488 40
1692 1488 22
1693 1488 22
1694 1488 22
1719 1488 38
1720 1488 38
1721 1488 38
1730 1488 26
1731 1488 26
1737 1488 26
1738 1488 26
1770 1488 40
1771 1488 40
1777 1488 40
1778 1488 40
1790 1488 52
1791 1488 52
1792 1488 52
1796 1488 25
1797 1488 25
1798 1488 25
1834 1488 26
1835 1488 26
1853 1488 26
1854 1488 26
1876 1488 29
1877 1488 29
1878 1488 29
1490 1489 61
1491 1489 61
1492 1489 40
1493 1489 40
1498 1489 40
1499 1489 40
1500 1489 40
1501 1489 40
1502 1489 40
1692 1489 22
1693 1489 22
1694 1489 22
1719 1489 38
1720 1489 38
1721 1489 38
1730 1489 26
1731 1489 26
1737 1489 26
1738 1489 26
1770 1489 40
1771 1489 40
1777 1489 40
1778 1489 40
1790 1489 52
1791 1489 52
1792 1489 52
1796 1489 25
1797 1489 25
1798 1489 25
1834 1489 26
1835 1489 26
1853 1489 26
1854 1489 26
1876 1489 29
1877 1489 29
1878 1489 29
1491 1490 61
1492 1490 40
1493 1490 40
1498 1490 40
1499 1490 40
1500 1490 40
1501 1490 40
1502 1490 40
1719 1490 26
1720 1490 26
1721 1490 26
1730 1490 26
1731 1490 26
1737 1490 26
1738 1490 26
1770 1490 40
1771 1490 40
1777 1490 40
1778 1490 40
1790 1490 40
1791 1490 40
1792 1490 40
1834 1490 26
1835 1490 26
1853 1490 26
1854 1490 26
1876 1490 26
1877 1490 26
1878 1490 26
1492 1491 40
1493 1491 40
1498 1491 40
1499 1491 40
1500 1491 40
1501 1491 40
1502 1491 40
1719 1491 26
1720 1491 26
1721 1491 26
1730 1491 26
1731 1491 26
1737 1491 26
1738 1491 26
1770 1491 40
1771 1491 40
1777 1491 40
1778 1491 40
1790 1491 40
1791 1491 40
1792 1491 40
1834 1491 26
1835 1491 26
1853 1491 26
1854 1491 26
1876 1491 26
1877 1491 26
1878 1491 26
1493 1492 58
1498 1492 58
1499 1492 58
1500 1492 58
1501 1492 58
1502 1492 58
1503 1492 37
1504 1492 37
1505 1492 37
1510 1492 37
1511 1492 37
1512 1492 37
1770 1492 26
1771 1492 26
1777 1492 26
1778 1492 26
1790 1492 26
1791 1492 26
1792 1492 26
1834 1492 38
1835 1492 38
1853 1492 38
1854 1492 38
1866 1492 24
1867 1492 24
1868 1492 24
1876 1492 38
1877 1492 38
1878 1492 38
1897 1492 24
1898 1492 24
1899 1492 24
1498 1493 58
1499 1493 58
1500 1493 58
1501 1493 58
1502 1493 58
1503 1493 37
1504 1493 37
1505 1493 37
1510 1493 37
1511 1493 37
1512 1493 37
1770 1493 26
1771 1493 26
1777 1493 26
1778 1493 26
1790 1493 26
1791 1493 26
1792 1493 26
1834 1493 38
1835 1493 38
1853 1493 38
1854 1493 38
1866 1493 24
1867 1493 24
1868 1493 24
1876 1493 38
1877 1493 38
1878 1493 38
1897 1493 24
1898 1493 24
1899 1493 24
1499 1498 58
1500 1498 58
1501 1498 58
1502 1498 58
1503 1498 37
1504 1498 37
1505 1498 37
1510 1498 37
1511 1498 37
1512 1498 37
1770 1498 26
1771 1498 26
1777 1498 26
1778 1498 26
1790 1498 26
1791 1498 26
1792 1498 26
1834 1498 38
1835 1498 38
1853 1498 38
1854 1498 38
1866 1498 24
1867 1498 24
1868 1498 24
1876 1498 38
1877 1498 38
1878 1498 38
1897 1498 24
1898 1498 24
1899 1498 24
1500 1499 58
1501 1499 58
1502 1499 58
1503 1499 37
1504 1499 37
1505 1499 37
1510 1499 37
1511 1499 37
1512 1499 37
1770 1499 26
1771 1499 26
1777 1499 26
1778 1499 26
1790 1499 26
1791 1499 26
1792 1499 26
1834 1499 38
1835 1499 38
1853 1499 38
1854 1499 38
1866 1499 24
1867 1499 24
1868 1499 24
1876 1499 38
1877 1499 38
1878 1499 38
1897 1499 24
1898 1499 24
1899 1499 24
1501 1500 58
1502 1500 58
1503 1500 37
1504 1500 37
1505 1500 37
1510 1500 37
1511 1500 37
1512 1500 37
1770 1500 26
1771 1500 26
1777 1500 26
1778 1500 26
1790 1500 26
1791 1500 26
1792 1500 26
1834 1500 38
1835 1500 38
1853 1500 38
1854 1500 38
1866 1500 24
1867 1500 24
1868 1500 24
1876 1500 38
1877 1500 38
1878 1500 38
1897 1500 24
1898 1500 24
1899 1500 24
1502 1501 58
1503 1501 37
1504 1501 37
1505 1501 37
1510 1501 37
1511 1501 37
1512 1501 37
1770 1501 26
1771 1501 26
1777 1501 26
1778 1501 26
1790 1501 26
1791 1501 26
1792 1501 26
1834 1501 38
1835 1501 38
1853 1501 38
1854 1501 38
1866 1501 24
1867 1501 24
1868 1501 24
1876 1501 38
1877 1501 38
1878 1501 38
1897 1501 24
1898 1501 24
1899 1501 24
1503 1502 37
1504 1502 37
1505 1502 37
1510 1502 37
1511 1502 37
1512 1502 37
1770 1502 26
1771 1502 26
1777 1502 26
1778 1502 26
1790 1502 26
1791 1502 26
1792 1502 26
1834 1502 38
1835 1502 38
1853 1502 38
1854 1502 38
1866 1502 24
1867 1502 24
1868 1502 24
1876 1502 38
1877 1502 38
1878 1502 38
1897 1502 24
1898 1502 24
1899 1502 24
1504 1503 37
1505 1503 37
1510 1503 37
1511 1503 37
1512 1503 37
1834 1503 24
1835 1503 24
1853 1503 24
1854 1503 24
1866 1503 24
1867 1503 24
1868 1503 24
1876 1503 24
1877 1503 24
1878 1503 24
1897 1503 24
1898 1503 24
1899 1503 24
1505 1504 37
1510 1504 37
1511 1504 37
1512 1504 37
1834 1504 24
1835 1504 24
1853 1504 24
1854 1504 24
1866 1504 24
1867 1504 24
1868 1504 24
1876 1504 24
1877 1504 24
1878 1504 24
1897 1504 24
1898 1504 24
1899 1504 24
1510 1505 37
1511 1505 37
1512 1505 37
1834 1505 24
1835 1505 24
1853 1505 24
1854 1505 24
1866 1505 24
1867 1505 24
1868 1505 24
1876 1505 24
1877 1505 24
1878 1505 24
1897 1505 24
1898 1505 24
1899 1505 24
1511 1510 37
1512 1510 37
1834 1510 24
1835 1510 24
1853 1510 24
1854 1510 24
1866 1510 24
1867 1510 24
1868 1510 24
1876 1510 24
1877 1510 24
1878 1510 24
1897 1510 24
1898 1510 24
1899 1510 24
1512 1511 37
1834 1511 24
1835 1511 24
1853 1511 24
1854 1511 24
1866 1511 24
1867 1511 24
1868 1511 24
1876 1511 24
1877 1511 24
1878 1511 24
1897 1511 24
1898 1511 24
1899 1511 24
1834 1512 24
1835 1512 24
1853 1512 24
1854 1512 24
1866 1512 24
1867 1512 24
1868 1512 24
1876 1512 24
1877 1512 24
1878 1512 24
1897 1512 24
1898 1512 24
1899 1512 24
1530 1529 37
1531 1529 37
1532 1529 37
1533 1529 37
1534 1529 37
1535 1529 37
1540 1529 37
1541 1529 37
1542 1529 37
1543 1529 37
1544 1529 37
1550 1529 37
1935 1529 24
1936 1529 24
1937 1529 24
1953 1529 24
1954 1529 24
1974 1529 24
1992 1529 24
1993 1529 24
1994 1529 24
1995 1529 24
1996 1529 24
1997 1529 24
1998 1529 24
1531 1530 37
1532 1530 37
1533 1530 37
1534 1530 37
1535 1530 37
1540 1530 37
1541 1530 37
1542 1530 37
1543 1530 37
1544 1530 37
1550 1530 37
1935 1530 24
1936 1530 24
1937 1530 24
1953 1530 24
1954 1530 24
1974 1530 24
1992 1530 24
1993 1530 24
1994 1530 24
1995 1530 24
1996 1530 24
1997 1530 24
1998 1530 24
1532 1531 37
1533 1531 37
1534 1531 37
1535 1531 37
1540 1531 37
1541 1531 37
1542 1531 37
1543 1531 37
1544 1531 37
1550 1531 37
1935 1531 24
1936 1531 24
1937 1531 24
1953 1531 24
1954 1531 24
1974 1531 24
1992 1531 24
1993 1531 24
1994 1531 24
1995 1531 24
1996 1531 24
1997 1531 24
1998 1531 24
1533 1532 37
1534 1532 37
1535 1532 37
1540 1532 37
1541 1532 37
1542 1532 37
1543 1532 37
1544 1532 37
1550 1532 37
1935 1532 24
1936 1532 24
1937 1532 24
1953 1532 24
1954 1532 24
1974 1532 24
1992 1532 24
1993 1532 24
1994 1532 24
1995 1532 24
1996 1532 24
1997 1532 24
1998 1532 24
1534 1533 37
1535 1533 37
1540 1533 37
1541 1533 37
1542 1533 37
1543 1533 37
1544 1533 37
1550 1533 37
1935 1533 24
1936 1533 24
1937 1533 24
1953 1533 24
1954 1533 24
1974 1533 24
1992 1533 24
1993 1533 24
1994 1533 24
1995 1533 24
1996 1533 24
1997 1533 24
1998 1533 24
1535 1534 58
1540 1534 58
1541 1534 58
1542 1534 58
1543 1534 58
1544 1534 58
1550 1534 37
1802 1534 26
1803 1534 26
1817 1534 26
1818 1534 26
1819 1534 26
1827 1534 26
1828 1534 26
1935 1534 38
1936 1534 38
1937 1534 38
1953 1534 38
1954 1534 38
1974 1534 24
1992 1534 38
1993 1534 38
1994 1534 24
1995 1534 24
1996 1534 24
1997 1534 24
1998 1534 24
1540 1535 58
1541 1535 58
1542 1535 58
1543 1535 58
1544 1535 58
1550 1535 37
1802 1535 26
1803 1535 26
1817 1535 26
1818 1535 26
1819 1535 26
1827 1535 26
1828 1535 26
1935 1535 38
1936 1535 38
1937 1535 38
1953 1535 38
1954 1535 38
1974 1535 24
1992 1535 38
1993 1535 38
1994 1535 24
1995 1535 24
1996 1535 24
1997 1535 24
1998 1535 24
1541 1540 58
1542 1540 58
1543 1540 58
1544 1540 58
1550 1540 37
1802 1540 26
1803 1540 26
1817 1540 26
1818 1540 26
1819 1540 26
1827 1540 26
1828 1540 26
1935 1540 38
1936 1540 38
1937 1540 38
1953 1540 38
1954 1540 38
1974 1540 24
1992 1540 38
1993 1540 38
1994 1540 24
1995 1540 24
1996 1540 24
1997 1540 24
1998 1540 24
1542 1541 58
1543 1541 58
1544 1541 58
1550 1541 37
1802 1541 26
1803 1541 26
1817 1541 26
1818 1541 26
1819 1541 26
1827 1541 26
1828 1541 26
1935 1541 38
1936 1541 38
1937 1541 38
1953 1541 38
1954 1541 38
1974 1541 24
1992 1541 38
1993 1541 38
1994 1541 24
1995 1541 24
1996 1541 24
1997 1541 24
1998 1541 24
1543 1542 58
1544 1542 58
1550 1542 37
1802 1542 26
1803 1542 26
1817 1542 26
1818 1542 26
1819 1542 26
1827 1542 26
1828 1542 26
1935 1542 38
1936 1542 38
1937 1542 38
1953 1542 38
1954 1542 38
1974 1542 24
1992 1542 38
1993 1542 38
1994 1542 24
1995 1542 24
1996 1542 24
1997 1542 24
1998 1542 24
1544 1543 58
1550 1543 37
1802 1543 26
1803 1543 26
1817 1543 26
1818 1543 26
1819 1543 26
1827 1543 26
1828 1543 26
1935 1543 38
1936 1543 38
1937 1543 38
1953 1543 38
1954 1543 38
1974 1543 24
1992 1543 38
1993 1543 38
1994 1543 24
1995 1543 24
1996 1543 24
1997 1543 24
1998 1543 24
1550 1544 37
1802 1544 26
1803 1544 26
1817 1544 26
1818 1544 26
1819 1544 26
1827 1544 26
1828 1544 26
1935 1544 38
1936 1544 38
1937 1544 38
1953 1544 38
1954 1544 38
1974 1544 24
1992 1544 38
1993 1544 38
1994 1544 24
1995 1544 24
1996 1544 24
1997 1544 24
1998 1544 24
1935 1550 24
1936 1550 24
1937 1550 24
1953 1550 24
1954 1550 24
1974 1550 24
1992 1550 24
1993 1550 24
1994 1550 24
1995 1550 24
1996 1550 24
1997 1550 24
1998 1550 24
1580 1579 37
1581 1579 37
1586 1579 24
1587 1579 24
1588 1579 24
1599 1579 37
1600 1579 37
1601 1579 37
1605 1579 24
1606 1579 24
1607 1579 24
1658 1579 37
1659 1579 37
1660 1579 37
1661 1579 37
1665 1579 37
1666 1579 37
1667 1579 37
1668 1579 24
1669 1579 24
1670 1579 24
1671 1579 24
1682 1579 24
1683 1579 24
1684 1579 24
1581 1580 37
1586 1580 24
1587 1580 24
1588 1580 24
1599 1580 37
1600 1580 37
1601 1580 37
1605 1580 24
1606 1580 24
1607 1580 24
1658 1580 37
1659 1580 37
1660 1580 37
1661 1580 37
1665 1580 37
1666 1580 37
1667 1580 37
1668 1580 24
1669 1580 24
1670 1580 24
1671 1580 24
1682 1580 24
1683 1580 24
1684 1580 24
1586 1581 24
1587 1581 24
1588 1581 24
1599 1581 37
1600 1581 37
1601 1581 37
1605 1581 24
1606 1581 24
1607 1581 24
1658 1581 37
1659 1581 37
1660 1581 37
1661 1581 37
1665 1581 37
1666 1581 37
1667 1581 37
1668 1581 24
1669 1581 24
1670 1581 24
1671 1581 24
1682 1581 24
1683 1581 24
1684 1581 24
1587 1586 37
1588 1586 37
1593 1586 24
1594 1586 24
1595 1586 24
1599 1586 24
1600 1586 24
1601 1586 24
1605 1586 37
1606 1586 37
1607 1586 37
1615 1586 24
1616 1586 24
1617 1586 24
1658 1586 24
1659 1586 24
1660 1586 24
1661 1586 24
1665 1586 24
1666 1586 24
1667 1586 24
1668 1586 37
1669 1586 37
1670 1586 37
1671 1586 37
1675 1586 24
1676 1586 24
1680 1586 24
1681 1586 24
1682 1586 37
1683 1586 37
1684 1586 37
1689 1586 24
1690 1586 24
1691 1586 24
1588 1587 37
1593 1587 24
1594 1587 24
1595 1587 24
1599 1587 24
1600 1587 24
1601 1587 24
1605 1587 37
1606 1587 37
1607 1587 37
1615 1587 24
1616 1587 24
1617 1587 24
1658 1587 24
1659 1587 24
1660 1587 24
1661 1587 24
1665 1587 24
1666 1587 24
1667 1587 24
1668 1587 37
1669 1587 37
1670 1587 37
1671 1587 37
1675 1587 24
1676 1587 24
1680 1587 24
1681 1587 24
1682 1587 37
1683 1587 37
1684 1587 37
1689 1587 24
1690 1587 24
1691 1587 24
1593 1588 24
1594 1588 24
1595 1588 24
1599 1588 24
1600 1588 24
1601 1588 24
1605 1588 37
1606 1588 37
1607 1588 37
1615 1588 24
1616 1588 24
1617 1588 24
1658 1588 24
1659 1588 24
1660 1588 24
1661 1588 24
1665 1588 24
1666 1588 24
1667 1588 24
1668 1588 37
1669 1588 37
1670 1588 37
1671 1588 37
1675 1588 24
1676 1588 24
1680 1588 24
1681 1588 24
1682 1588 37
1683 1588 37
1684 1588 37
1689 1588 24
1690 1588 24
1691 1588 24
1594 1593 24
1595 1593 24
1605 1593 24
1606 1593 24
1607 1593 24
1615 1593 24
1616 1593 24
1617 1593 24
1668 1593 24
1669 1593 24
1670 1593 24
1671 1593 24
1675 1593 24
1676 1593 24
1680 1593 24
1681 1593 24
1682 1593 24
1683 1593 24
1684 1593 24
1689 1593 24
1690 1593 24
1691 1593 24
1595 1594 24
1605 1594 24
1606 1594 24
1607 1594 24
1615 1594 24
1616 1594 24
1617 1594 24
1668 1594 24
1669 1594 24
1670 1594 24
1671 1594 24
1675 1594 24
1676 1594 24
1680 1594 24
1681 1594 24
1682 1594 24
1683 1594 24
1684 1594 24
1689 1594 24
1690 1594 24
1691 1594 24
1605 1595 24
1606 1595 24
1607 1595 24
1615 1595 24
1616 1595 24
1617 1595 24
1668 1595 24
1669 1595 24
1670 1595 24
1671 1595 24
1675 1595 24
1676 1595 24
1680 1595 24
1681 1595 24
1682 1595 24
1683 1595 24
1684 1595 24
1689 1595 24
1690 1595 24
1691 1595 24
1600 1599 49
1601 1599 49
1602 1599 22
1603 1599 22
1604 1599 22
1605 1599 36
1606 1599 36
1607 1599 36
1608 1599 22
1609 1599 22
1610 1599 22
1658 1599 37
1659 1599 37
1660 1599 37
1661 1599 37
1665 1599 49
1666 1599 49
1667 1599 49
1668 1599 24
1669 1599 24
1670 1599 24
1671 1599 24
1682 1599 36
1683 1599 36
1684 1599 36
1692 1599 22
1693 1599 22
1694 1599 22
1695 1599 22
1696 1599 22
1697 1599 22
1601 1600 49
1602 1600 22
1603 1600 22
1604 1600 22
1605 1600 36
1606 1600 36
1607 1600 36
1608 1600 22
1609 1600 22
1610 1600 22
1658 1600 37
1659 1600 37
1660 1600 37
1661 1600 37
1665 1600 49
1666 1600 49
1667 1600 49
1668 1600 24
1669 1600 24
1670 1600 24
1671 1600 24
1682 1600 36
1683 1600 36
1684 1600 36
1692 1600 22
1693 1600 22
1694 1600 22
1695 1600 22
1696 1600 22
1697 1600 22
1602 1601 22
1603 1601 22
1604 1601 22
1605 1601 36
1606 1601 36
1607 1601 36
1608 1601 22
1609 1601 22
1610 1601 22
1658 1601 37
1659 1601 37
1660 1601 37
1661 1601 37
1665 1601 49
1666 1601 49
1667 1601 49
1668 1601 24
1669 1601 24
1670 1601 24
1671 1601 24
1682 1601 36
1683 1601 36
1684 1601 36
1692 1601 22
1693 1601 22
1694 1601 22
1695 1601 22
1696 1601 22
1697 1601 22
1603 1602 34
1604 1602 34
1605 1602 22
1606 1602 22
1607 1602 22
1608 1602 34
1609 1602 34
1610 1602 34
1636 1602 22
1637 1602 22
1638 1602 22
1639 1602 22
1640 1602 22
1641 1602 22
1665 1602 22
1666 1602 22
1667 1602 22
1682 1602 22
1683 1602 22
1684 1602 22
1692 1602 34
1693 1602 34
1694 1602 34
1695 1602 34
1696 1602 34
1697 1602 34
1716 1602 22
1717 1602 22
1718 1602 22
1719 1602 22
1720 1602 22
1721 1602 22
1604 1603 34
1605 1603 22
1606 1603 22
1607 1603 22
1608 1603 34
1609 1603 34
1610 1603 34
1636 1603 22
1637 1603 22
1638 1603 22
1639 1603 22
1640 1603 22
1641 1603 22
1665 1603 22
1666 1603 22
1667 1603 22
1682 1603 22
1683 1603 22
1684 1603 22
1692 1603 34
1693 1603 34
1694 1603 34
1695 1603 34
1696 1603 34
1697 1603 34
1716 1603 22
1717 1603 22
1718 1603 22
1719 1603 22
1720 1603 22
1721 1603 22
1605 1604 22
1606 1604 22
1607 1604 22
1608 1604 34
1609 1604 34
1610 1604 34
1636 1604 22
1637 1604 22
1638 1604 22
1639 1604 22
1640 1604 22
1641 1604 22
1665 1604 22
1666 1604 22
1667 1604 22
1682 1604 22
1683 1604 22
1684 1604 22
1692 1604 34
1693 1604 34
1694 1604 34
1695 1604 34
1696 1604 34
1697 1604 34
1716 1604 22
1717 1604 22
1718 1604 22
1719 1604 22
1720 1604 22
1721 1604 22
1606 1605 55
1607 1605 55
1608 1605 34
1609 1605 34
1610 1605 34
1615 1605 36
1616 1605 36
1617 1605 36
1626 1605 22
1627 1605 22
1628 1605 22
1658 1605 24
1659 1605 24
1660 1605 24
1661 1605 24
1665 1605 36
1666 1605 36
1667 1605 36
1668 1605 37
1669 1605 37
1670 1605 37
1671 1605 37
1675 1605 24
1676 1605 24
1680 1605 24
1681 1605 24
1682 1605 55
1683 1605 55
1684 1605 55
1689 1605 36
1690 1605 36
1691 1605 36
1692 1605 22
1693 1605 22
1694 1605 22
1695 1605 34
1696 1605 34
1697 1605 34
1706 1605 22
1707 1605 22
1708 1605 22
1607 1606 55
1608 1606 34
1609 1606 34
1610 1606 34
1615 1606 36
1616 1606 36
1617 1606 36
1626 1606 22
1627 1606 22
1628 1606 22
1658 1606 24
1659 1606 24
1660 1606 24
1661 1606 24
1665 1606 36
1666 1606 36
1667 1606 36
1668 1606 37
1669 1606 37
1670 1606 37
1671 1606 37
1675 1606 24
1676 1606 24
1680 1606 24
1681 1606 24
1682 1606 55
1683 1606 55
1684 1606 55
1689 1606 36
1690 1606 36
1691 1606 36
1692 1606 22
1693 1606 22
1694 1606 22
1695 1606 34
1696 1606 34
1697 1606 34
1706 1606 22
1707 1606 22
1708 1606 22
1608 1607 34
1609 1607 34
1610 1607 34
1615 1607 36
1616 1607 36
1617 1607 36
1626 1607 22
1627 1607 22
1628 1607 22
1658 1607 24
1659 1607 24
1660 1607 24
1661 1607 24
1665 1607 36
1666 1607 36
1667 1607 36
1668 1607 37
1669 1607 37
1670 1607 37
1671 1607 37
1675 1607 24
1676 1607 24
1680 1607 24
1681 1607 24
1682 1607 55
1683 1607 55
1684 1607 55
1689 1607 36
1690 1607 36
1691 1607 36
1692 1607 22
1693 1607 22
1694 1607 22
1695 1607 34
1696 1607 34
1697 1607 34
1706 1607 22
1707 1607 22
1708 1607 22
1609 1608 52
1610 1608 52
1615 1608 22
1616 1608 22
1617 1608 22
1626 1608 34
1627 1608 34
1628 1608 34
1636 1608 22
1637 1608 22
1638 1608 22
1639 1608 34
1640 1608 34
1641 1608 34
1650 1608 22
1651 1608 22
1652 1608 22
1665 1608 22
1666 1608 22
1667 1608 22
1682 1608 34
1683 1608 34
1684 1608 34
1689 1608 22
1690 1608 22
1691 1608 22
1692 1608 34
1693 1608 34
1694 1608 34
1695 1608 52
1696 1608 52
1697 1608 52
1706 1608 34
1707 1608 34
1708 1608 34
1716 1608 34
1717 1608 34
1718 1608 34
1719 1608 22
1720 1608 22
1721 1608 22
1727 1608 22
1728 1608 22
1729 1608 22
1610 1609 52
1615 1609 22
1616 1609 22
1617 1609 22
1626 1609 34
1627 1609 34
1628 1609 34
1636 1609 22
1637 1609 22
1638 1609 22
1639 1609 34
1640 1609 34
1641 1609 34
1650 1609 22
1651 1609 22
1652 1609 22
1665 1609 22
1666 1609 22
1667 1609 22
1682 1609 34
1683 1609 34
1684 1609 34
1689 1609 22
1690 1609 22
1691 1609 22
1692 1609 34
1693 1609 34
1694 1609 34
1695 1609 52
1696 1609 52
1697 1609 52
1706 1609 34
1707 1609 34
1708 1609 34
1716 1609 34
1717 1609 34
1718 1609 34
1719 1609 22
1720 1609 22
1721 1609 22
1727 1609 22
1728 1609 22
1729 1609 22
1615 1610 22
1616 1610 22
1617 1610 22
1626 1610 34
1627 1610 34
1628 1610 34
1636 1610 22
1637 1610 22
1638 1610 22
1639 1610 34
1640 1610 34
1641 1610 34
1650 1610 22
1651 1610 22
1652 1610 22
1665 1610 22
1666 1610 22
1667 1610 22
1682 1610 34
1683 1610 34
1684 1610 34
1689 1610 22
1690 1610 22
1691 1610 22
1692 1610 34
1693 1610 34
1694 1610 34
1695 1610 52
1696 1610 52
1697 1610 52
1706 1610 34
1707 1610 34
1708 1610 34
1716 1610 34
1717 1610 34
1718 1610 34
1719 1610 22
1720 1610 22
1721 1610 22
1727 1610 22
1728 1610 22
1729 1610 22
1616 1615 36
1617 1615 36
1626 1615 22
1627 1615 22
1628 1615 22
1668 1615 24
1669 1615 24
1670 1615 24
1671 1615 24
1675 1615 24
1676 1615 24
1680 1615 24
1681 1615 24
1682 1615 36
1683 1615 36
1684 1615 36
1689 1615 36
1690 1615 36
1691 1615 36
1695 1615 22
1696 1615 22
1697 1615 22
1706 1615 22
1707 1615 22
1708 1615 22
1617 1616 36
1626 1616 22
1627 1616 22
1628 1616 22
1668 1616 24
1669 1616 24
1670 1616 24
1671 1616 24
1675 1616 24
1676 1616 24
1680 1616 24
1681 1616 24
1682 1616 36
1683 1616 36
1684 1616 36
1689 1616 36
1690 1616 36
1691 1616 36
1695 1616 22
1696 1616 22
1697 1616 22
1706 1616 22
1707 1616 22
1708 1616 22
1626 1617 22
1627 1617 22
1628 1617 22
1668 1617 24
1669 1617 24
1670 1617 24
1671 1617 24
1675 1617 24
1676 1617 24
1680 1617 24
1681 1617 24
1682 1617 36
1683 1617 36
1684 1617 36
1689 1617 36
1690 1617 36
1691 1617 36
1695 1617 22
1696 1617 22
1697 1617 22
1706 1617 22
1707 1617 22
1708 1617 22
1627 1626 34
1628 1626 34
1639 1626 22
1640 1626 22
1641 1626 22
1650 1626 22
1651 1626 22
1652 1626 22
1682 1626 22
1683 1626 22
1684 1626 22
1689 1626 22
1690 1626 22
1691 1626 22
1695 1626 34
1696 1626 34
1697 1626 34
1706 1626 34
1707 1626 34
1708 1626 34
1716 1626 22
1717 1626 22
1718 1626 22
1727 1626 22
1728 1626 22
1729 1626 22
1628 1627 34
1639 1627 22
1640 1627 22
1641 1627 22
1650 1627 22
1651 1627 22
1652 1627 22
1682 1627 22
1683 1627 22
1684 1627 22
1689 1627 22
1690 1627 22
1691 1627 22
1695 1627 34
1696 1627 34
1697 1627 34
1706 1627 34
1707 1627 34
1708 1627 34
1716 1627 22
1717 1627 22
1718 1627 22
1727 1627 22
1728 1627 22
1729 1627 22
1639 1628 22
1640 1628 22
1641 1628 22
1650 1628 22
1651 1628 22
1652 1628 22
1682 1628 22
1683 1628 22
1684 1628 22
1689 1628 22
1690 1628 22
1691 1628 22
1695 1628 34
1696 1628 34
1697 1628 34
1706 1628 34
1707 1628 34
1708 1628 34
1716 1628 22
1717 1628 22
1718 1628 22
1727 1628 22
1728 1628 22
1729 1628 22
1634 1629 24
1635 1629 24
1636 1629 37
1637 1629 37
1638 1629 37
1639 1629 24
1640 1629 24
1641 1629 24
1648 1629 37
1649 1629 37
1653 1629 24
1711 1629 24
1712 1629 24
1716 1629 24
1717 1629 24
1718 1629 24
1719 1629 37
1720 1629 37
1721 1629 37
1730 1629 37
1731 1629 37
1735 1629 24
1736 1629 24
1737 1629 37
1738 1629 37
1635 1634 37
1636 1634 24
1637 1634 24
1638 1634 24
1639 1634 37
1640 1634 37
1641 1634 37
1642 1634 24
1643 1634 24
1644 1634 24
1648 1634 24
1649 1634 24
1650 1634 24
1651 1634 24
1652 1634 24
1653 1634 37
1709 1634 24
1710 1634 24
1711 1634 37
1712 1634 37
1716 1634 37
1717 1634 37
1718 1634 37
1719 1634 24
1720 1634 24
1721 1634 24
1722 1634 24
1723 1634 24
1727 1634 24
1728 1634 24
1729 1634 24
1730 1634 24
1731 1634 24
1735 1634 37
1736 1634 37
1737 1634 24
1738 1634 24
1636 1635 24
1637 1635 24
1638 1635 24
1639 1635 37
1640 1635 37
1641 1635 37
1642 1635 24
1643 1635 24
1644 1635 24
1648 1635 24
1649 1635 24
1650 1635 24
1651 1635 24
1652 1635 24
1653 1635 37
1709 1635 24
1710 1635 24
1711 1635 37
1712 1635 37
1716 1635 37
1717 1635 37
1718 1635 37
1719 1635 24
1720 1635 24
1721 1635 24
1722 1635 24
1723 1635 24
1727 1635 24
1728 1635 24
1729 1635 24
1730 1635 24
1731 1635 24
1735 1635 37
1736 1635 37
1737 1635 24
1738 1635 24
1637 1636 49
1638 1636 49
1639 1636 36
1640 1636 36
1641 1636 36
1648 1636 37
1649 1636 37
1653 1636 24
1692 1636 25
1693 1636 25
1694 1636 25
1695 1636 22
1696 1636 22
1697 1636 22
1711 1636 24
1712 1636 24
1716 1636 36
1717 1636 36
1718 1636 36
1719 1636 49
1720 1636 49
1721 1636 49
1730 1636 37
1731 1636 37
1735 1636 24
1736 1636 24
1737 1636 37
1738 1636 37
1638 1637 49
1639 1637 36
1640 1637 36
1641 1637 36
1648 1637 37
1649 1637 37
1653 1637 24
1692 1637 25
1693 1637 25
1694 1637 25
1695 1637 22
1696 1637 22
1697 1637 22
1711 1637 24
1712 1637 24
1716 1637 36
1717 1637 36
1718 1637 36
1719 1637 49
1720 1637 49
1721 1637 49
1730 1637 37
1731 1637 37
1735 1637 24
1736 1637 24
1737 1637 37
1738 1637 37
1639 1638 36
1640 1638 36
1641 1638 36
1648 1638 37
1649 1638 37
1653 1638 24
1692 1638 25
1693 1638 25
1694 1638 25
1695 1638 22
1696 1638 22
1697 1638 22
1711 1638 24
1712 1638 24
1716 1638 36
1717 1638 36
1718 1638 36
1719 1638 49
1720 1638 49
1721 1638 49
1730 1638 37
1731 1638 37
1735 1638 24
1736 1638 24
1737 1638 37
1738 1638 37
1640 1639 55
1641 1639 55
1642 1639 24
1643 1639 24
1644 1639 24
1648 1639 24
1649 1639 24
1650 1639 36
1651 1639 36
1652 1639 36
1653 1639 37
1692 1639 22
1693 1639 22
1694 1639 22
1695 1639 34
1696 1639 34
1697 1639 34
1706 1639 22
1707 1639 22
1708 1639 22
1709 1639 24
1710 1639 24
1711 1639 37
1712 1639 37
1716 1639 55
1717 1639 55
1718 1639 55
1719 1639 36
1720 1639 36
1721 1639 36
1722 1639 24
1723 1639 24
1727 1639 36
1728 1639 36
1729 1639 36
1730 1639 24
1731 1639 24
1735 1639 37
1736 1639 37
1737 1639 24
1738 1639 24
1641 1640 55
1642 1640 24
1643 1640 24
1644 1640 24
1648 1640 24
1649 1640 24
1650 1640 36
1651 1640 36
1652 1640 36
1653 1640 37
1692 1640 22
1693 1640 22
1694 1640 22
1695 1640 34
1696 1640 34
1697 1640 34
1706 1640 22
1707 1640 22
1708 1640 22
1709 1640 24
1710 1640 24
1711 1640 37
1712 1640 37
1716 1640 55
1717 1640 55
1718 1640 55
1719 1640 36
1720 1640 36
1721 1640 36
1722 1640 24
1723 1640 24
1727 1640 36
1728 1640 36
1729 1640 36
1730 1640 24
1731 1640 24
1735 1640 37
1736 1640 37
1737 1640 24
1738 1640 24
1642 1641 24
1643 1641 24
1644 1641 24
1648 1641 24
1649 1641 24
1650 1641 36
1651 1641 36
1652 1641 36
1653 1641 37
1692 1641 22
1693 1641 22
1694 1641 22
1695 1641 34
1696 1641 34
1697 1641 34
1706 1641 22
1707 1641 22
1708 1641 22
1709 1641 24
1710 1641 24
1711 1641 37
1712 1641 37
1716 1641 55
1717 1641 55
1718 1641 55
1719 1641 36
1720 1641 36
1721 1641 36
1722 1641 24
1723 1641 24
1727 1641 36
1728 1641 36
1729 1641 36
1730 1641 24
1731 1641 24
1735 1641 37
1736 1641 37
1737 1641 24
1738 1641 24
1643 1642 24
1644 1642 24
1650 1642 24
1651 1642 24
1652 1642 24
1653 1642 24
1709 1642 24
1710 1642 24
1711 1642 24
1712 1642 24
1716 1642 24
1717 1642 24
1718 1642 24
1722 1642 24
1723 1642 24
1727 1642 24
1728 1642 24
1729 1642 24
1735 1642 24
1736 1642 24
1644 1643 24
1650 1643 24
1651 1643 24
1652 1643 24
1653 1643 24
1709 1643 24
1710 1643 24
1711 1643 24
1712 1643 24
1716 1643 24
1717 1643 24
1718 1643 24
1722 1643 24
1723 1643 24
1727 1643 24
1728 1643 24
1729 1643 24
1735 1643 24
1736 1643 24
1650 1644 24
1651 1644 24
1652 1644 24
1653 1644 24
1709 1644 24
1710 1644 24
1711 1644 24
1712 1644 24
1716 1644 24
1717 1644 24
1718 1644 24
1722 1644 24
1723 1644 24
1727 1644 24
1728 1644 24
1729 1644 24
1735 1644 24
1736 1644 24
1649 1648 37
1653 1648 24
1711 1648 24
1712 1648 24
1716 1648 24
1717 1648 24
1718 1648 24
1719 1648 37
1720 1648 37
1721 1648 37
1730 1648 37
1731 1648 37
1735 1648 24
1736 1648 24
1737 1648 37
1738 1648 37
1653 1649 24
1711 1649 24
1712 1649 24
1716 1649 24
1717 1649 24
1718 1649 24
1719 1649 37
1720 1649 37
1721 1649 37
1730 1649 37
1731 1649 37
1735 1649 24
1736 1649 24
1737 1649 37
1738 1649 37
1651 1650 36
1652 1650 36
1653 1650 24
1695 1650 22
1696 1650 22
1697 1650 22
1706 1650 22
1707 1650 22
1708 1650 22
1709 1650 24
1710 1650 24
1711 1650 24
1712 1650 24
1716 1650 36
1717 1650 36
1718 1650 36
1722 1650 24
1723 1650 24
1727 1650 36
1728 1650 36
1729 1650 36
1735 1650 24
1736 1650 24
1652 1651 36
1653 1651 24
1695 1651 22
1696 1651 22
1697 1651 22
1706 1651 22
1707 1651 22
1708 1651 22
1709 1651 24
1710 1651 24
1711 1651 24
1712 1651 24
1716 1651 36
1717 1651 36
1718 1651 36
1722 1651 24
1723 1651 24
1727 1651 36
1728 1651 36
1729 1651 36
1735 1651 24
1736 1651 24
1653 1652 24
1695 1652 22
1696 1652 22
1697 1652 22
1706 1652 22
1707 1652 22
1708 1652 22
1709 1652 24
1710 1652 24
1711 1652 24
1712 1652 24
1716 1652 36
1717 1652 36
1718 1652 36
1722 1652 24
1723 1652 24
1727 1652 36
1728 1652 36
1729 1652 36
1735 1652 24
1736 1652 24
1709 1653 24
1710 1653 24
1711 1653 37
1712 1653 37
1716 1653 37
1717 1653 37
1718 1653 37
1719 1653 24
1720 1653 24
1721 1653 24
1722 1653 24
1723 1653 24
1727 1653 24
1728 1653 24
1729 1653 24
1730 1653 24
1731 1653 24
1735 1653 37
1736 1653 37
1737 1653 24
1738 1653 24
1659 1658 58
1660 1658 58
1661 1658 58
1665 1658 58
1666 1658 58
1667 1658 58
1668 1658 38
1669 1658 38
1670 1658 38
1671 1658 38
1682 1658 38
1683 1658 38
1684 1658 38
1802 1658 40
1803 1658 40
1807 1658 26
1808 1658 26
1809 1658 26
1817 1658 40
1818 1658 40
1819 1658 40
1820 1658 26
1821 1658 26
1825 1658 26
1826 1658 26
1827 1658 40
1828 1658 40
1660 1659 58
1661 1659 58
1665 1659 58
1666 1659 58
1667 1659 58
1668 1659 38
1669 1659 38
1670 1659 38
1671 1659 38
1682 1659 38
1683 1659 38
1684 1659 38
1802 1659 40
1803 1659 40
1807 1659 26
1808 1659 26
1809 1659 26
1817 1659 40
1818 1659 40
1819 1659 40
1820 1659 26
1821 1659 26
1825 1659 26
1826 1659 26
1827 1659 40
1828 1659 40
1661 1660 58
1665 1660 58
1666 1660 58
1667 1660 58
1668 1660 38
1669 1660 38
1670 1660 38
1671 1660 38
1682 1660 38
1683 1660 38
1684 1660 38
1802 1660 40
1803 1660 40
1807 1660 26
1808 1660 26
1809 1660 26
1817 1660 40
1818 1660 40
1819 1660 40
1820 1660 26
1821 1660 26
1825 1660 26
1826 1660 26
1827 1660 40
1828 1660 40
1665 1661 58
1666 1661 58
1667 1661 58
1668 1661 38
1669 1661 38
1670 1661 38
1671 1661 38
1682 1661 38
1683 1661 38
1684 1661 38
1802 1661 40
1803 1661 40
1807 1661 26
1808 1661 26
1809 1661 26
1817 1661 40
1818 1661 40
1819 1661 40
1820 1661 26
1821 1661 26
1825 1661 26
1826 1661 26
1827 1661 40
1828 1661 40
1666 1665 73
1667 1665 73
1668 1665 38
1669 1665 38
1670 1665 38
1671 1665 38
1682 1665 53
1683 1665 53
1684 1665 53
1692 1665 25
1693 1665 25
1694 1665 25
1695 1665 28
1696 1665 28
1697 1665 28
1802 1665 40
1803 1665 40
1807 1665 32
1808 1665 32
1809 1665 32
1817 1665 43
1818 1665 43
1819 1665 43
1820 1665 26
1821 1665 26
1825 1665 26
1826 1665 26
1827 1665 40
1828 1665 40
1667 1666 73
1668 1666 38
1669 1666 38
1670 1666 38
1671 1666 38
1682 1666 53
1683 1666 53
1684 1666 53
1692 1666 25
1693 1666 25
1694 1666 25
1695 1666 28
1696 1666 28
1697 1666 28
1802 1666 40
1803 1666 40
1807 1666 32
1808 1666 32
1809 1666 32
1817 1666 43
1818 1666 43
1819 1666 43
1820 1666 26
1821 1666 26
1825 1666 26
1826 1666 26
1827 1666 40
1828 1666 40
1668 1667 38
1669 1667 38
1670 1667 38
1671 1667 38
1682 1667 53
1683 1667 53
1684 1667 53
1692 1667 25
1693 1667 25
1694 1667 25
1695 1667 28
1696 1667 28
1697 1667 28
1802 1667 40
1803 1667 40
1807 1667 32
1808 1667 32
1809 1667 32
1817 1667 43
1818 1667 43
1819 1667 43
1820 1667 26
1821 1667 26
1825 1667 26
1826 1667 26
1827 1667 40
1828 1667 40
1669 1668 58
1670 1668 58
1671 1668 58
1675 1668 38
1676 1668 38
1680 1668 38
1681 1668 38
1682 1668 58
1683 1668 58
1684 1668 58
1689 1668 38
1690 1668 38
1691 1668 38
1802 1668 26
1803 1668 26
1804 1668 26
1805 1668 26
1806 1668 26
1807 1668 40
1808 1668 40
1809 1668 40
1810 1668 26
1811 1668 26
1815 1668 26
1816 1668 26
1817 1668 26
1818 1668 26
1819 1668 26
1820 1668 40
1821 1668 40
1825 1668 40
1826 1668 40
1827 1668 26
1828 1668 26
1670 1669 58
1671 1669 58
1675 1669 38
1676 1669 38
1680 1669 38
1681 1669 38
1682 1669 58
1683 1669 58
1684 1669 58
1689 1669 38
1690 1669 38
1691 1669 38
1802 1669 26
1803 1669 26
1804 1669 26
1805 1669 26
1806 1669 26
1807 1669 40
1808 1669 40
1809 1669 40
1810 1669 26
1811 1669 26
1815 1669 26
1816 1669 26
1817 1669 26
1818 1669 26
1819 1669 26
1820 1669 40
1821 1669 40
1825 1669 40
1826 1669 40
1827 1669 26
1828 1669 26
1671 1670 58
1675 1670 38
1676 1670 38
1680 1670 38
1681 1670 38
1682 1670 58
1683 1670 58
1684 1670 58
1689 1670 38
1690 1670 38
1691 1670 38
1802 1670 26
1803 1670 26
1804 1670 26
1805 1670 26
1806 1670 26
1807 1670 40
1808 1670 40
1809 1670 40
1810 1670 26
1811 1670 26
1815 1670 26
1816 1670 26
1817 1670 26
1818 1670 26
1819 1670 26
1820 1670 40
1821 1670 40
1825 1670 40
1826 1670 40
1827 1670 26
1828 1670 26
1675 1671 38
1676 1671 38
1680 1671 38
1681 1671 38
1682 1671 58
1683 1671 58
1684 1671 58
1689 1671 38
1690 1671 38
1691 1671 38
1802 1671 26
1803 1671 26
1804 1671 26
1805 1671 26
1806 1671 26
1807 1671 40
1808 1671 40
1809 1671 40
1810 1671 26
1811 1671 26
1815 1671 26
1816 1671 26
1817 1671 26
1818 1671 26
1819 1671 26
1820 1671 40
1821 1671 40
1825 1671 40
1826 1671 40
1827 1671 26
1828 1671 26
1676 1675 38
1680 1675 38
1681 1675 38
1682 1675 38
1683 1675 38
1684 1675 38
1689 1675 38
1690 1675 38
1691 1675 38
1804 1675 26
1805 1675 26
1806 1675 26
1807 1675 26
1808 1675 26
1809 1675 26
1810 1675 26
1811 1675 26
1815 1675 26
1816 1675 26
1820 1675 26
1821 1675 26
1825 1675 26
1826 1675 26
1680 1676 38
1681 1676 38
1682 1676 38
1683 1676 38
1684 1676 38
1689 1676 38
1690 1676 38
1691 1676 38
1804 1676 26
1805 1676 26
1806 1676 26
1807 1676 26
1808 1676 26
1809 1676 26
1810 1676 26
1811 1676 26
1815 1676 26
1816 1676 26
1820 1676 26
1821 1676 26
1825 1676 26
1826 1676 26
1681 1680 38
1682 1680 38
1683 1680 38
1684 1680 38
1689 1680 38
1690 1680 38
1691 1680 38
1804 1680 26
1805 1680 26
1806 1680 26
1807 1680 26
1808 1680 26
1809 1680 26
1810 1680 26
1811 1680 26
1815 1680 26
1816 1680 26
1820 1680 26
1821 1680 26
1825 1680 26
1826 1680 26
1682 1681 38
1683 1681 38
1684 1681 38
1689 1681 38
1690 1681 38
1691 1681 38
1804 1681 26
1805 1681 26
1806 1681 26
1807 1681 26
1808 1681 26
1809 1681 26
1810 1681 26
1811 1681 26
1815 1681 26
1816 1681 26
1820 1681 26
1821 1681 26
1825 1681 26
1826 1681 26
1683 1682 85
1684 1682 85
1689 1682 56
1690 1682 56
1691 1682 56
1692 1682 25
1693 1682 25
1694 1682 25
1695 1682 49
1696 1682 49
1697 1682 49
1706 1682 34
1707 1682 34
1708 1682 34
1793 1682 28
1794 1682 28
1795 1682 28
1796 1682 22
1797 1682 22
1798 1682 22
1799 1682 22
1800 1682 22
1801 1682 22
1802 1682 26
1803 1682 26
1804 1682 38
1805 1682 38
1806 1682 38
1807 1682 55
1808 1682 55
1809 1682 55
1810 1682 26
1811 1682 26
1815 1682 26
1816 1682 26
1817 1682 32
1818 1682 32
1819 1682 32
1820 1682 40
1821 1682 40
1825 1682 40
1826 1682 40
1827 1682 26
1828 1682 26
1684 1683 85
1689 1683 56
1690 1683 56
1691 1683 56
1692 1683 25
1693 1683 25
1694 1683 25
1695 1683 49
1696 1683 49
1697 1683 49
1706 1683 34
1707 1683 34
1708 1683 34
1793 1683 28
1794 1683 28
1795 1683 28
1796 1683 22
1797 1683 22
1798 1683 22
1799 1683 22
1800 1683 22
1801 1683 22
1802 1683 26
1803 1683 26
1804 1683 38
1805 1683 38
1806 1683 38
1807 1683 55
1808 1683 55
1809 1683 55
1810 1683 26
1811 1683 26
1815 1683 26
1816 1683 26
1817 1683 32
1818 1683 32
1819 1683 32
1820 1683 40
1821 1683 40
1825 1683 40
1826 1683 40
1827 1683 26
1828 1683 26
1689 1684 56
1690 1684 56
1691 1684 56
1692 1684 25
1693 1684 25
1694 1684 25
1695 1684 49
1696 1684 49
1697 1684 49
1706 1684 34
1707 1684 34
1708 1684 34
1793 1684 28
1794 1684 28
1795 1684 28
1796 1684 22
1797 1684 22
1798 1684 22
1799 1684 22
1800 1684 22
1801 1684 22
1802 1684 26
1803 1684 26
1804 1684 38
1805 1684 38
1806 1684 38
1807 1684 55
1808 1684 55
1809 1684 55
1810 1684 26
1811 1684 26
1815 1684 26
1816 1684 26
1817 1684 32
1818 1684 32
1819 1684 32
1820 1684 40
1821 1684 40
1825 1684 40
1826 1684 40
1827 1684 26
1828 1684 26
1690 1689 56
1691 1689 56
1695 1689 34
1696 1689 34
1697 1689 34
1706 1689 34
1707 1689 34
1708 1689 34
1793 1689 22
1794 1689 22
1795 1689 22
1799 1689 22
1800 1689 22
1801 1689 22
1804 1689 38
1805 1689 38
1806 1689 38
1807 1689 38
1808 1689 38
1809 1689 38
1810 1689 26
1811 1689 26
1815 1689 26
1816 1689 26
1820 1689 26
1821 1689 26
1825 1689 26
1826 1689 26
1691 1690 56
1695 1690 34
1696 1690 34
1697 1690 34
1706 1690 34
1707 1690 34
1708 1690 34
1793 1690 22
1794 1690 22
1795 1690 22
1799 1690 22
1800 1690 22
1801 1690 22
1804 1690 38
1805 1690 38
1806 1690 38
1807 1690 38
1808 1690 38
1809 1690 38
1810 1690 26
1811 1690 26
1815 1690 26
1816 1690 26
1820 1690 26
1821 1690 26
1825 1690 26
1826 1690 26
1695 1691 34
1696 1691 34
1697 1691 34
1706 1691 34
1707 1691 34
1708 1691 34
1793 1691 22
1794 1691 22
1795 1691 22
1799 1691 22
1800 1691 22
1801 1691 22
1804 1691 38
1805 1691 38
1806 1691 38
1807 1691 38
1808 1691 38
1809 1691 38
1810 1691 26
1811 1691 26
1815 1691 26
1816 1691 26
1820 1691 26
1821 1691 26
1825 1691 26
1826 1691 26
1693 1692 52
1694 1692 52
1695 1692 40
1696 1692 40
1697 1692 40
1716 1692 28
1717 1692 28
1718 1692 28
1719 1692 40
1720 1692 40
1721 1692 40
1790 1692 28
1791 1692 28
1792 1692 28
1796 1692 34
1797 1692 34
1798 1692 34
1694 1693 52
1695 1693 40
1696 1693 40
1697 1693 40
1716 1693 28
1717 1693 28
1718 1693 28
1719 1693 40
1720 1693 40
1721 1693 40
1790 1693 28
1791 1693 28
1792 1693 28
1796 1693 34
1797 1693 34
1798 1693 34
1695 1694 40
1696 1694 40
1697 1694 40
1716 1694 28
1717 1694 28
1718 1694 28
1719 1694 40
1720 1694 40
1721 1694 40
1790 1694 28
1791 1694 28
1792 1694 28
1796 1694 34
1797 1694 34
1798 1694 34
1696 1695 76
1697 1695 76
1706 1695 52
1707 1695 52
1708 1695 52
1716 1695 52
1717 1695 52
1718 1695 52
1719 1695 31
1720 1695 31
1721 1695 31
1727 1695 34
1728 1695 34
1729 1695 34
1784 1695 31
1785 1695 31
1786 1695 31
1787 1695 22
1788 1695 22
1789 1695 22
1790 1695 22
1791 1695 22
1792 1695 22
1793 1695 40
1794 1695 40
1795 1695 40
1796 1695 31
1797 1695 31
1798 1695 31
1799 1695 34
1800 1695 34
1801 1695 34
1804 1695 22
1805 1695 22
1806 1695 22
1807 1695 28
1808 1695 28
1809 1695 28
1697 1696 76
1706 1696 52
1707 1696 52
1708 1696 52
1716 1696 52
1717 1696 52
1718 1696 52
1719 1696 31
1720 1696 31
1721 1696 31
1727 1696 34
1728 1696 34
1729 1696 34
1784 1696 31
1785 1696 31
1786 1696 31
1787 1696 22
1788 1696 22
1789 1696 22
1790 1696 22
1791 1696 22
1792 1696 22
1793 1696 40
1794 1696 40
1795 1696 40
1796 1696 31
1797 1696 31
1798 1696 31
1799 1696 34
1800 1696 34
1801 1696 34
1804 1696 22
1805 1696 22
1806 1696 22
1807 1696 28
1808 1696 28
1809 1696 28
1706 1697 52
1707 1697 52
1708 1697 52
1716 1697 52
1717 1697 52
1718 1697 52
1719 1697 31
1720 1697 31
1721 1697 31
1727 1697 34
1728 1697 34
1729 1697 34
1784 1697 31
1785 1697 31
1786 1697 31
1787 1697 22
1788 1697 22
1789 1697 22
1790 1697 22
1791 1697 22
1792 1697 22
1793 1697 40
1794 1697 40
1795 1697 40
1796 1697 31
1797 1697 31
1798 1697 31
1799 1697 34
1800 1697 34
1801 1697 34
1804 1697 22
1805 1697 22
1806 1697 22
1807 1697 28
1808 1697 28
1809 1697 28
1707 1706 52
1708 1706 52
1716 1706 34
1717 1706 34
1718 1706 34
1727 1706 34
1728 1706 34
1729 1706 34
1784 1706 22
1785 1706 22
1786 1706 22
1787 1706 22
1788 1706 22
1789 1706 22
1793 1706 34
1794 1706 34
1795 1706 34
1799 1706 34
1800 1706 34
1801 1706 34
1804 1706 22
1805 1706 22
1806 1706 22
1807 1706 22
1808 1706 22
1809 1706 22
1708 1707 52
1716 1707 34
1717 1707 34
1718 1707 34
1727 1707 34
1728 1707 34
1729 1707 34
1784 1707 22
1785 1707 22
1786 1707 22
1787 1707 22
1788 1707 22
1789 1707 22
1793 1707 34
1794 1707 34
1795 1707 34
1799 1707 34
1800 1707 34
1801 1707 34
1804 1707 22
1805 1707 22
1806 1707 22
1807 1707 22
1808 1707 22
1809 1707 22
1716 1708 34
1717 1708 34
1718 1708 34
1727 1708 34
1728 1708 34
1729 1708 34
1784 1708 22
1785 1708 22
1786 1708 22
1787 1708 22
1788 1708 22
1789 1708 22
1793 1708 34
1794 1708 34
1795 1708 34
1799 1708 34
1800 1708 34
1801 1708 34
1804 1708 22
1805 1708 22
1806 1708 22
1807 1708 22
1808 1708 22
1809 1708 22
1710 1709 38
1711 1709 38
1712 1709 38
1716 1709 38
1717 1709 38
1718 1709 38
1722 1709 38
1723 1709 38
1727 1709 38
1728 1709 38
1729 1709 38
1735 1709 38
1736 1709 38
1763 1709 26
1764 1709 26
1768 1709 26
1769 1709 26
1772 1709 26
1773 1709 26
1782 1709 26
1783 1709 26
1784 1709 26
1785 1709 26
1786 1709 26
1787 1709 26
1788 1709 26
1789 1709 26
1711 1710 38
1712 1710 38
1716 1710 38
1717 1710 38
1718 1710 38
1722 1710 38
1723 1710 38
1727 1710 38
1728 1710 38
1729 1710 38
1735 1710 38
1736 1710 38
1763 1710 26
1764 1710 26
1768 1710 26
1769 1710 26
1772 1710 26
1773 1710 26
1782 1710 26
1783 1710 26
1784 1710 26
1785 1710 26
1786 1710 26
1787 1710 26
1788 1710 26
1789 1710 26
1712 1711 58
1716 1711 58
1717 1711 58
1718 1711 58
1719 1711 38
1720 1711 38
1721 1711 38
1722 1711 38
1723 1711 38
1727 1711 38
1728 1711 38
1729 1711 38
1730 1711 38
1731 1711 38
1735 1711 58
1736 1711 58
1737 1711 38
1738 1711 38
1763 1711 26
1764 1711 26
1768 1711 40
1769 1711 40
1770 1711 26
1771 1711 26
1772 1711 40
1773 1711 40
1777 1711 26
1778 1711 26
1782 1711 26
1783 1711 26
1784 1711 40
1785 1711 40
1786 1711 40
1787 1711 26
1788 1711 26
1789 1711 26
1790 1711 26
1791 1711 26
1792 1711 26
1716 1712 58
1717 1712 58
1718 1712 58
1719 1712 38
1720 1712 38
1721 1712 38
1722 1712 38
1723 1712 38
1727 1712 38
1728 1712 38
1729 1712 38
1730 1712 38
1731 1712 38
1735 1712 58
1736 1712 58
1737 1712 38
1738 1712 38
1763 1712 26
1764 1712 26
1768 1712 40
1769 1712 40
1770 1712 26
1771 1712 26
1772 1712 40
1773 1712 40
1777 1712 26
1778 1712 26
1782 1712 26
1783 1712 26
1784 1712 40
1785 1712 40
1786 1712 40
1787 1712 26
1788 1712 26
1789 1712 26
1790 1712 26
1791 1712 26
1792 1712 26
1717 1716 85
1718 1716 85
1719 1716 53
1720 1716 53
1721 1716 53
1722 1716 38
1723 1716 38
1727 1716 56
1728 1716 56
1729 1716 56
1730 1716 38
1731 1716 38
1735 1716 58
1736 1716 58
1737 1716 38
1738 1716 38
1763 1716 26
1764 1716 26
1768 1716 40
1769 1716 40
1770 1716 26
1771 1716 26
1772 1716 40
1773 1716 40
1777 1716 26
1778 1716 26
1782 1716 26
1783 1716 26
1784 1716 55
1785 1716 55
1786 1716 55
1787 1716 38
1788 1716 38
1789 1716 38
1790 1716 38
1791 1716 38
1792 1716 38
1793 1716 28
1794 1716 28
1795 1716 28
1796 1716 22
1797 1716 22
1798 1716 22
1799 1716 22
1800 1716 22
1801 1716 22
1718 1717 85
1719 1717 53
1720 1717 53
1721 1717 53
1722 1717 38
1723 1717 38
1727 1717 56
1728 1717 56
1729 1717 56
1730 1717 38
1731 1717 38
1735 1717 58
1736 1717 58
1737 1717 38
1738 1717 38
1763 1717 26
1764 1717 26
1768 1717 40
1769 1717 40
1770 1717 26
1771 1717 26
1772 1717 40
1773 1717 40
1777 1717 26
1778 1717 26
1782 1717 26
1783 1717 26
1784 1717 55
1785 1717 55
1786 1717 55
1787 1717 38
1788 1717 38
1789 1717 38
1790 1717 38
1791 1717 38
1792 1717 38
1793 1717 28
1794 1717 28
1795 1717 28
1796 1717 22
1797 1717 22
1798 1717 22
1799 1717 22
1800 1717 22
1801 1717 22
1719 1718 53
1720 1718 53
1721 1718 53
1722 1718 38
1723 1718 38
1727 1718 56
1728 1718 56
1729 1718 56
1730 1718 38
1731 1718 38
1735 1718 58
1736 1718 58
1737 1718 38
1738 1718 38
1763 1718 26
1764 1718 26
1768 1718 40
1769 1718 40
1770 1718 26
1771 1718 26
1772 1718 40
1773 1718 40
1777 1718 26
1778 1718 26
1782 1718 26
1783 1718 26
1784 1718 55
1785 1718 55
1786 1718 55
1787 1718 38
1788 1718 38
1789 1718 38
1790 1718 38
1791 1718 38
1792 1718 38
1793 1718 28
1794 1718 28
1795 1718 28
1796 1718 22
1797 1718 22
1798 1718 22
1799 1718 22
1800 1718 22
1801 1718 22
1720 1719 79
1721 1719 79
1730 1719 58
1731 1719 58
1735 1719 38
1736 1719 38
1737 1719 58
1738 1719 58
1768 1719 26
1769 1719 26
1770 1719 40
1771 1719 40
1772 1719 26
1773 1719 26
1777 1719 40
1778 1719 40
1784 1719 32
1785 1719 32
1786 1719 32
1790 1719 55
1791 1719 55
1792 1719 55
1796 1719 31
1797 1719 31
1798 1719 31
1721 1720 79
1730 1720 58
1731 1720 58
1735 1720 38
1736 1720 38
1737 1720 58
1738 1720 58
1768 1720 26
1769 1720 26
1770 1720 40
1771 1720 40
1772 1720 26
1773 1720 26
1777 1720 40
1778 1720 40
1784 1720 32
1785 1720 32
1786 1720 32
1790 1720 55
1791 1720 55
1792 1720 55
1796 1720 31
1797 1720 31
1798 1720 31
1730 1721 58
1731 1721 58
1735 1721 38
1736 1721 38
1737 1721 58
1738 1721 58
1768 1721 26
1769 1721 26
1770 1721 40
1771 1721 40
1772 1721 26
1773 1721 26
1777 1721 40
1778 1721 40
1784 1721 32
1785 1721 32
1786 1721 32
1790 1721 55
1791 1721 55
1792 1721 55
1796 1721 31
1797 1721 31
1798 1721 31
1723 1722 38
1727 1722 38
1728 1722 38
1729 1722 38
1735 1722 38
1736 1722 38
1763 1722 26
1764 1722 26
1768 1722 26
1769 1722 26
1772 1722 26
1773 1722 26
1782 1722 26
1783 1722 26
1784 1722 26
1785 1722 26
1786 1722 26
1787 1722 26
1788 1722 26
1789 1722 26
1727 1723 38
1728 1723 38
1729 1723 38
1735 1723 38
1736 1723 38
1763 1723 26
1764 1723 26
1768 1723 26
1769 1723 26
1772 1723 26
1773 1723 26
1782 1723 26
1783 1723 26
1784 1723 26
1785 1723 26
1786 1723 26
1787 1723 26
1788 1723 26
1789 1723 26
1728 1727 56
1729 1727 56
1735 1727 38
1736 1727 38
1763 1727 26
1764 1727 26
1768 1727 26
1769 1727 26
1772 1727 26
1773 1727 26
1782 1727 26
1783 1727 26
1784 1727 38
1785 1727 38
1786 1727 38
1787 1727 38
1788 1727 38
1789 1727 38
1793 1727 22
1794 1727 22
1795 1727 22
1799 1727 22
1800 1727 22
1801 1727 22
1729 1728 56
1735 1728 38
1736 1728 38
1763 1728 26
1764 1728 26
1768 1728 26
1769 1728 26
1772 1728 26
1773 1728 26
1782 1728 26
1783 1728 26
1784 1728 38
1785 1728 38
1786 1728 38
1787 1728 38
1788 1728 38
1789 1728 38
1793 1728 22
1794 1728 22
1795 1728 22
1799 1728 22
1800 1728 22
1801 1728 22
1735 1729 38
1736 1729 38
1763 1729 26
1764 1729 26
1768 1729 26
1769 1729 26
1772 1729 26
1773 1729 26
1782 1729 26
1783 1729 26
1784 1729 38
1785 1729 38
1786 1729 38
1787 1729 38
1788 1729 38
1789 1729 38
1793 1729 22
1794 1729 22
1795 1729 22
1799 1729 22
1800 1729 22
1801 1729 22
1731 1730 58
1735 1730 38
1736 1730 38
1737 1730 58
1738 1730 58
1768 1730 26
1769 1730 26
1770 1730 40
1771 1730 40
1772 1730 26
1773 1730 26
1777 1730 40
1778 1730 40
1784 1730 26
1785 1730 26
1786 1730 26
1790 1730 40
1791 1730 40
1792 1730 40
1735 1731 38
1736 1731 38
1737 1731 58
1738 1731 58
1768 1731 26
1769 1731 26
1770 1731 40
1771 1731 40
1772 1731 26
1773 1731 26
1777 1731 40
1778 1731 40
1784 1731 26
1785 1731 26
1786 1731 26
1790 1731 40
1791 1731 40
1792 1731 40
1736 1735 58
1737 1735 38
1738 1735 38
1763 1735 26
1764 1735 26
1768 1735 40
1769 1735 40
1770 1735 26
1771 1735 26
1772 1735 40
1773 1735 40
1777 1735 26
1778 1735 26
1782 1735 26
1783 1735 26
1784 1735 40
1785 1735 40
1786 1735 40
1787 1735 26
1788 1735 26
1789 1735 26
1790 1735 26
1791 1735 26
1792 1735 26
1737 1736 38
1738 1736 38
1763 1736 26
1764 1736 26
1768 1736 40
1769 1736 40
1770 1736 26
1771 1736 26
1772 1736 40
1773 1736 40
1777 1736 26
1778 1736 26
1782 1736 26
1783 1736 26
1784 1736 40
1785 1736 40
1786 1736 40
1787 1736 26
1788 1736 26
1789 1736 26
1790 1736 26
1791 1736 26
1792 1736 26
1738 1737 58
1768 1737 26
1769 1737 26
1770 1737 40
1771 1737 40
1772 1737 26
1773 1737 26
1777 1737 40
1778 1737 40
1784 1737 26
1785 1737 26
1786 1737 26
1790 1737 40
1791 1737 40
1792 1737 40
1768 1738 26
1769 1738 26
1770 1738 40
1771 1738 40
1772 1738 26
1773 1738 26
1777 1738 40
1778 1738 40
1784 1738 26
1785 1738 26
1786 1738 26
1790 1738 40
1791 1738 40
1792 1738 40
1764 1763 40
1768 1763 40
1769 1763 40
1772 1763 39
1773 1763 39
1782 1763 40
1783 1763 40
1784 1763 40
1785 1763 40
1786 1763 40
1787 1763 40
1788 1763 40
1789 1763 40
1839 1763 26
1840 1763 26
1841 1763 26
1842 1763 26
1848 1763 26
1849 1763 26
1855 1763 26
1856 1763 26
1873 1763 26
1874 1763 26
1875 1763 26
1879 1763 26
1880 1763 26
1881 1763 24
1768 1764 40
1769 1764 40
1772 1764 39
1773 1764 39
1782 1764 40
1783 1764 40
1784 1764 40
1785 1764 40
1786 1764 40
1787 1764 40
1788 1764 40
1789 1764 40
1839 1764 26
1840 1764 26
1841 1764 26
1842 1764 26
1848 1764 26
1849 1764 26
1855 1764 26
1856 1764 26
1873 1764 26
1874 1764 26
1875 1764 26
1879 1764 26
1880 1764 26
1881 1764 24
1769 1768 61
1770 1768 40
1771 1768 40
1772 1768 60
1773 1768 60
1777 1768 40
1778 1768 40
1782 1768 40
1783 1768 40
1784 1768 61
1785 1768 61
1786 1768 61
1787 1768 40
1788 1768 40
1789 1768 40
1790 1768 40
1791 1768 40
1792 1768 40
1834 1768 26
1835 1768 26
1839 1768 26
1840 1768 26
1841 1768 40
1842 1768 40
1848 1768 40
1849 1768 40
1853 1768 26
1854 1768 26
1855 1768 26
1856 1768 26
1873 1768 26
1874 1768 26
1875 1768 26
1876 1768 26
1877 1768 26
1878 1768 26
1879 1768 40
1880 1768 40
1881 1768 38
1770 1769 40
1771 1769 40
1772 1769 60
1773 1769 60
1777 1769 40
1778 1769 40
1782 1769 40
1783 1769 40
1784 1769 61
1785 1769 61
1786 1769 61
1787 1769 40
1788 1769 40
1789 1769 40
1790 1769 40
1791 1769 40
1792 1769 40
1834 1769 26
1835 1769 26
1839 1769 26
1840 1769 26
1841 1769 40
1842 1769 40
1848 1769 40
1849 1769 40
1853 1769 26
1854 1769 26
1855 1769 26
1856 1769 26
1873 1769 26
1874 1769 26
1875 1769 26
1876 1769 26
1877 1769 26
1878 1769 26
1879 1769 40
1880 1769 40
1881 1769 38
1771 1770 61
1772 1770 39
1773 1770 39
1777 1770 61
1778 1770 61
1784 1770 40
1785 1770 40
1786 1770 40
1790 1770 61
1791 1770 61
1792 1770 61
1834 1770 40
1835 1770 40
1841 1770 26
1842 1770 26
1848 1770 26
1849 1770 26
1853 1770 40
1854 1770 40
1876 1770 40
1877 1770 40
1878 1770 40
1879 1770 26
1880 1770 26
1881 1770 24
1772 1771 39
1773 1771 39
1777 1771 61
1778 1771 61
1784 1771 40
1785 1771 40
1786 1771 40
1790 1771 61
1791 1771 61
1792 1771 61
1834 1771 40
1835 1771 40
1841 1771 26
1842 1771 26
1848 1771 26
1849 1771 26
1853 1771 40
1854 1771 40
1876 1771 40
1877 1771 40
1878 1771 40
1879 1771 26
1880 1771 26
1881 1771 24
1773 1772 60
1777 1772 39
1778 1772 39
1782 1772 39
1783 1772 39
1784 1772 60
1785 1772 60
1786 1772 60
1787 1772 39
1788 1772 39
1789 1772 39
1790 1772 39
1791 1772 39
1792 1772 39
1834 1772 25
1835 1772 25
1839 1772 25
1840 1772 25
1841 1772 39
1842 1772 39
1848 1772 39
1849 1772 39
1853 1772 25
1854 1772 25
1855 1772 25
1856 1772 25
1873 1772 25
1874 1772 25
1875 1772 25
1876 1772 25
1877 1772 25
1878 1772 25
1879 1772 39
1880 1772 39
1777 1773 39
1778 1773 39
1782 1773 39
1783 1773 39
1784 1773 60
1785 1773 60
1786 1773 60
1787 1773 39
1788 1773 39
1789 1773 39
1790 1773 39
1791 1773 39
1792 1773 39
1834 1773 25
1835 1773 25
1839 1773 25
1840 1773 25
1841 1773 39
1842 1773 39
1848 1773 39
1849 1773 39
1853 1773 25
1854 1773 25
1855 1773 25
1856 1773 25
1873 1773 25
1874 1773 25
1875 1773 25
1876 1773 25
1877 1773 25
1878 1773 25
1879 1773 39
1880 1773 39
1778 1777 61
1784 1777 40
1785 1777 40
1786 1777 40
1790 1777 61
1791 1777 61
1792 1777 61
1834 1777 40
1835 1777 40
1841 1777 26
1842 1777 26
1848 1777 26
1849 1777 26
1853 1777 40
1854 1777 40
1876 1777 40
1877 1777 40
1878 1777 40
1879 1777 26
1880 1777 26
1881 1777 24
1784 1778 40
1785 1778 40
1786 1778 40
1790 1778 61
1791 1778 61
1792 1778 61
1834 1778 40
1835 1778 40
1841 1778 26
1842 1778 26
1848 1778 26
1849 1778 26
1853 1778 40
1854 1778 40
1876 1778 40
1877 1778 40
1878 1778 40
1879 1778 26
1880 1778 26
1881 1778 24
1783 1782 40
1784 1782 40
1785 1782 40
1786 1782 40
1787 1782 40
1788 1782 40
1789 1782 40
1839 1782 26
1840 1782 26
1841 1782 26
1842 1782 26
1848 1782 26
1849 1782 26
1855 1782 26
1856 1782 26
1873 1782 26
1874 1782 26
1875 1782 26
1879 1782 26
1880 1782 26
1881 1782 24
1784 1783 40
1785 1783 40
1786 1783 40
1787 1783 40
1788 1783 40
1789 1783 40
1839 1783 26
1840 1783 26
1841 1783 26
1842 1783 26
1848 1783 26
1849 1783 26
1855 1783 26
1856 1783 26
1873 1783 26
1874 1783 26
1875 1783 26
1879 1783 26
1880 1783 26
1881 1783 24
1785 1784 82
1786 1784 82
1787 1784 52
1788 1784 52
1789 1784 52
1790 1784 55
1791 1784 55
1792 1784 55
1793 1784 40
1794 1784 40
1795 1784 40
1796 1784 31
1797 1784 31
1798 1784 31
1799 1784 22
1800 1784 22
1801 1784 22
1834 1784 26
1835 1784 26
1839 1784 26
1840 1784 26
1841 1784 40
1842 1784 40
1848 1784 40
1849 1784 40
1853 1784 26
1854 1784 26
1855 1784 26
1856 1784 26
1873 1784 29
1874 1784 29
1875 1784 29
1876 1784 38
1877 1784 38
1878 1784 38
1879 1784 52
1880 1784 52
1881 1784 50
1903 1784 25
1904 1784 25
1905 1784 25
1909 1784 22
1910 1784 22
1911 1784 22
1786 1785 82
1787 1785 52
1788 1785 52
1789 1785 52
1790 1785 55
1791 1785 55
1792 1785 55
1793 1785 40
1794 1785 40
1795 1785 40
1796 1785 31
1797 1785 31
1798 1785 31
1799 1785 22
1800 1785 22
1801 1785 22
1834 1785 26
1835 1785 26
1839 1785 26
1840 1785 26
1841 1785 40
1842 1785 40
1848 1785 40
1849 1785 40
1853 1785 26
1854 1785 26
1855 1785 26
1856 1785 26
1873 1785 29
1874 1785 29
1875 1785 29
1876 1785 38
1877 1785 38
1878 1785 38
1879 1785 52
1880 1785 52
1881 1785 50
1903 1785 25
1904 1785 25
1905 1785 25
1909 1785 22
1910 1785 22
1911 1785 22
1787 1786 52
1788 1786 52
1789 1786 52
1790 1786 55
1791 1786 55
1792 1786 55
1793 1786 40
1794 1786 40
1795 1786 40
1796 1786 31
1797 1786 31
1798 1786 31
1799 1786 22
1800 1786 22
1801 1786 22
1834 1786 26
1835 1786 26
1839 1786 26
1840 1786 26
1841 1786 40
1842 1786 40
1848 1786 40
1849 1786 40
1853 1786 26
1854 1786 26
1855 1786 26
1856 1786 26
1873 1786 29
1874 1786 29
1875 1786 29
1876 1786 38
1877 1786 38
1878 1786 38
1879 1786 52
1880 1786 52
1881 1786 50
1903 1786 25
1904 1786 25
1905 1786 25
1909 1786 22
1910 1786 22
1911 1786 22
1788 1787 52
1789 1787 52
1793 1787 25
1794 1787 25
1795 1787 25
1799 1787 22
1800 1787 22
1801 1787 22
1839 1787 26
1840 1787 26
1841 1787 26
1842 1787 26
1848 1787 26
1849 1787 26
1855 1787 26
1856 1787 26
1873 1787 26
1874 1787 26
1875 1787 26
1879 1787 29
1880 1787 29
1881 1787 27
1789 1788 52
1793 1788 25
1794 1788 25
1795 1788 25
1799 1788 22
1800 1788 22
1801 1788 22
1839 1788 26
1840 1788 26
1841 1788 26
1842 1788 26
1848 1788 26
1849 1788 26
1855 1788 26
1856 1788 26
1873 1788 26
1874 1788 26
1875 1788 26
1879 1788 29
1880 1788 29
1881 1788 27
1793 1789 25
1794 1789 25
1795 1789 25
1799 1789 22
1800 1789 22
1801 1789 22
1839 1789 26
1840 1789 26
1841 1789 26
1842 1789 26
1848 1789 26
1849 1789 26
1855 1789 26
1856 1789 26
1873 1789 26
1874 1789 26
1875 1789 26
1879 1789 29
1880 1789 29
1881 1789 27
1791 1790 85
1792 1790 85
1793 1790 28
1794 1790 28
1795 1790 28
1796 1790 46
1797 1790 46
1798 1790 46
1834 1790 40
1835 1790 40
1841 1790 26
1842 1790 26
1848 1790 26
1849 1790 26
1853 1790 40
1854 1790 40
1876 1790 52
1877 1790 52
1878 1790 52
1879 1790 38
1880 1790 38
1881 1790 36
1903 1790 22
1904 1790 22
1905 1790 22
1909 1790 22
1910 1790 22
1911 1790 22
1792 1791 85
1793 1791 28
1794 1791 28
1795 1791 28
1796 1791 46
1797 1791 46
1798 1791 46
1834 1791 40
1835 1791 40
1841 1791 26
1842 1791 26
1848 1791 26
1849 1791 26
1853 1791 40
1854 1791 40
1876 1791 52
1877 1791 52
1878 1791 52
1879 1791 38
1880 1791 38
1881 1791 36
1903 1791 22
1904 1791 22
1905 1791 22
1909 1791 22
1910 1791 22
1911 1791 22
1793 1792 28
1794 1792 28
1795 1792 28
1796 1792 46
1797 1792 46
1798 1792 46
1834 1792 40
1835 1792 40
1841 1792 26
1842 1792 26
1848 1792 26
1849 1792 26
1853 1792 40
1854 1792 40
1876 1792 52
1877 1792 52
1878 1792 52
1879 1792 38
1880 1792 38
1881 1792 36
1903 1792 22
1904 1792 22
1905 1792 22
1909 1792 22
1910 1792 22
1911 1792 22
1794 1793 61
1795 1793 61
1796 1793 43
1797 1793 43
1798 1793 43
1799 1793 34
1800 1793 34
1801 1793 34
1804 1793 25
1805 1793 25
1806 1793 25
1807 1793 40
1808 1793 40
1809 1793 40
1817 1793 25
1818 1793 25
1819 1793 25
1876 1793 22
1877 1793 22
1878 1793 22
1879 1793 25
1880 1793 25
1881 1793 25
1903 1793 34
1904 1793 34
1905 1793 34
1909 1793 34
1910 1793 34
1911 1793 34
1935 1793 22
1936 1793 22
1937 1793 22
1971 1793 25
1972 1793 25
1973 1793 25
1795 1794 61
1796 1794 43
1797 1794 43
1798 1794 43
1799 1794 34
1800 1794 34
1801 1794 34
1804 1794 25
1805 1794 25
1806 1794 25
1807 1794 40
1808 1794 40
1809 1794 40
1817 1794 25
1818 1794 25
1819 1794 25
1876 1794 22
1877 1794 22
1878 1794 22
1879 1794 25
1880 1794 25
1881 1794 25
1903 1794 34
1904 1794 34
1905 1794 34
1909 1794 34
1910 1794 34
1911 1794 34
1935 1794 22
1936 1794 22
1937 1794 22
1971 1794 25
1972 1794 25
1973 1794 25
1796 1795 43
1797 1795 43
1798 1795 43
1799 1795 34
1800 1795 34
1801 1795 34
1804 1795 25
1805 1795 25
1806 1795 25
1807 1795 40
1808 1795 40
1809 1795 40
1817 1795 25
1818 1795 25
1819 1795 25
1876 1795 22
1877 1795 22
1878 1795 22
1879 1795 25
1880 1795 25
1881 1795 25
1903 1795 34
1904 1795 34
1905 1795 34
1909 1795 34
1910 1795 34
1911 1795 34
1935 1795 22
1936 1795 22
1937 1795 22
1971 1795 25
1972 1795 25
1973 1795 25
1797 1796 64
1798 1796 64
1807 1796 31
1808 1796 31
1809 1796 31
1817 1796 28
1818 1796 28
1819 1796 28
1876 1796 25
1877 1796 25
1878 1796 25
1879 1796 22
1880 1796 22
1881 1796 22
1903 1796 34
1904 1796 34
1905 1796 34
1909 1796 34
1910 1796 34
1911 1796 34
1935 1796 22
1936 1796 22
1937 1796 22
1971 1796 22
1972 1796 22
1973 1796 22
1798 1797 64
1807 1797 31
1808 1797 31
1809 1797 31
1817 1797 28
1818 1797 28
1819 1797 28
1876 1797 25
1877 1797 25
1878 1797 25
1879 1797 22
1880 1797 22
1881 1797 22
1903 1797 34
1904 1797 34
1905 1797 34
1909 1797 34
1910 1797 34
1911 1797 34
1935 1797 22
1936 1797 22
1937 1797 22
1971 1797 22
1972 1797 22
1973 1797 22
1807 1798 31
1808 1798 31
1809 1798 31
1817 1798 28
1818 1798 28
1819 1798 28
1876 1798 25
1877 1798 25
1878 1798 25
1879 1798 22
1880 1798 22
1881 1798 22
1903 1798 34
1904 1798 34
1905 1798 34
1909 1798 34
1910 1798 34
1911 1798 34
1935 1798 22
1936 1798 22
1937 1798 22
1971 1798 22
1972 1798 22
1973 1798 22
1800 1799 34
1801 1799 34
1804 1799 22
1805 1799 22
1806 1799 22
1807 1799 22
1808 1799 22
1809 1799 22
1801 1800 34
1804 1800 22
1805 1800 22
1806 1800 22
1807 1800 22
1808 1800 22
1809 1800 22
1804 1801 22
1805 1801 22
1806 1801 22
1807 1801 22
1808 1801 22
1809 1801 22
1803 1802 61
1807 1802 40
1808 1802 40
1809 1802 40
1817 1802 61
1818 1802 61
1819 1802 61
1820 1802 40
1821 1802 40
1825 1802 40
1826 1802 40
1827 1802 61
1828 1802 61
1935 1802 40
1936 1802 40
1937 1802 40
1953 1802 40
1954 1802 40
1971 1802 26
1972 1802 26
1973 1802 26
1982 1802 26
1983 1802 26
1992 1802 40
1993 1802 40
1999 1802 26
2000 1802 26
1807 1803 40
1808 1803 40
1809 1803 40
1817 1803 61
1818 1803 61
1819 1803 61
1820 1803 40
1821 1803 40
1825 1803 40
1826 1803 40
1827 1803 61
1828 1803 61
1935 1803 40
1936 1803 40
1937 1803 40
1953 1803 40
1954 1803 40
1971 1803 26
1972 1803 26
1973 1803 26
1982 1803 26
1983 1803 26
1992 1803 40
1993 1803 40
1999 1803 26
2000 1803 26
1805 1804 52
1806 1804 52
1807 1804 52
1808 1804 52
1809 1804 52
1810 1804 40
1811 1804 40
1815 1804 40
1816 1804 40
1820 1804 40
1821 1804 40
1825 1804 40
1826 1804 40
1942 1804 26
1943 1804 26
1961 1804 26
1962 1804 26
1971 1804 29
1972 1804 29
1973 1804 29
1979 1804 26
1980 1804 26
1981 1804 26
1982 1804 26
1983 1804 26
1999 1804 26
2000 1804 26
1806 1805 52
1807 1805 52
1808 1805 52
1809 1805 52
1810 1805 40
1811 1805 40
1815 1805 40
1816 1805 40
1820 1805 40
1821 1805 40
1825 1805 40
1826 1805 40
1942 1805 26
1943 1805 26
1961 1805 26
1962 1805 26
1971 1805 29
1972 1805 29
1973 1805 29
1979 1805 26
1980 1805 26
1981 1805 26
1982 1805 26
1983 1805 26
1999 1805 26
2000 1805 26
1807 1806 52
1808 1806 52
1809 1806 52
1810 1806 40
1811 1806 40
1815 1806 40
1816 1806 40
1820 1806 40
1821 1806 40
1825 1806 40
1826 1806 40
1942 1806 26
1943 1806 26
1961 1806 26
1962 1806 26
1971 1806 29
1972 1806 29
1973 1806 29
1979 1806 26
1980 1806 26
1981 1806 26
1982 1806 26
1983 1806 26
1999 1806 26
2000 1806 26
1808 1807 82
1809 1807 82
1810 1807 40
1811 1807 40
1815 1807 40
1816 1807 40
1817 1807 52
1818 1807 52
1819 1807 52
1820 1807 61
1821 1807 61
1825 1807 61
1826 1807 61
1827 1807 40
1828 1807 40
1903 1807 25
1904 1807 25
1905 1807 25
1909 1807 22
1910 1807 22
1911 1807 22
1935 1807 38
1936 1807 38
1937 1807 38
1942 1807 26
1943 1807 26
1953 1807 26
1954 1807 26
1961 1807 26
1962 1807 26
1971 1807 52
1972 1807 52
1973 1807 52
1979 1807 29
1980 1807 29
1981 1807 29
1982 1807 40
1983 1807 40
1992 1807 26
1993 1807 26
1999 1807 40
2000 1807 40
1809 1808 82
1810 1808 40
1811 1808 40
1815 1808 40
1816 1808 40
1817 1808 52
1818 1808 52
1819 1808 52
1820 1808 61
1821 1808 61
1825 1808 61
1826 1808 61
1827 1808 40
1828 1808 40
1903 1808 25
1904 1808 25
1905 1808 25
1909 1808 22
1910 1808 22
1911 1808 22
1935 1808 38
1936 1808 38
1937 1808 38
1942 1808 26
1943 1808 26
1953 1808 26
1954 1808 26
1961 1808 26
1962 1808 26
1971 1808 52
1972 1808 52
1973 1808 52
1979 1808 29
1980 1808 29
1981 1808 29
1982 1808 40
1983 1808 40
1992 1808 26
1993 1808 26
1999 1808 40
2000 1808 40
1810 1809 40
1811 1809 40
1815 1809 40
1816 1809 40
1817 1809 52
1818 1809 52
1819 1809 52
1820 1809 61
1821 1809 61
1825 1809 61
1826 1809 61
1827 1809 40
1828 1809 40
1903 1809 25
1904 1809 25
1905 1809 25
1909 1809 22
1910 1809 22
1911 1809 22
1935 1809 38
1936 1809 38
1937 1809 38
1942 1809 26
1943 1809 26
1953 1809 26
1954 1809 26
1961 1809 26
1962 1809 26
1971 1809 52
1972 1809 52
1973 1809 52
1979 1809 29
1980 1809 29
1981 1809 29
1982 1809 40
1983 1809 40
1992 1809 26
1993 1809 26
1999 1809 40
2000 1809 40
1811 1810 40
1815 1810 40
1816 1810 40
1820 1810 40
1821 1810 40
1825 1810 40
1826 1810 40
1942 1810 26
1943 1810 26
1961 1810 26
1962 1810 26
1971 1810 26
1972 1810 26
1973 1810 26
1979 1810 26
1980 1810 26
1981 1810 26
1982 1810 26
1983 1810 26
1999 1810 26
2000 1810 26
1815 1811 40
1816 1811 40
1820 1811 40
1821 1811 40
1825 1811 40
1826 1811 40
1942 1811 26
1943 1811 26
1961 1811 26
1962 1811 26
1971 1811 26
1972 1811 26
1973 1811 26
1979 1811 26
1980 1811 26
1981 1811 26
1982 1811 26
1983 1811 26
1999 1811 26
2000 1811 26
1816 1815 40
1820 1815 40
1821 1815 40
1825 1815 40
1826 1815 40
1942 1815 26
1943 1815 26
1961 1815 26
1962 1815 26
1971 1815 26
1972 1815 26
1973 1815 26
1979 1815 26
1980 1815 26
1981 1815 26
1982 1815 26
1983 1815 26
1999 1815 26
2000 1815 26
1820 1816 40
1821 1816 40
1825 1816 40
1826 1816 40
1942 1816 26
1943 1816 26
1961 1816 26
1962 1816 26
1971 1816 26
1972 1816 26
1973 1816 26
1979 1816 26
1980 1816 26
1981 1816 26
1982 1816 26
1983 1816 26
1999 1816 26
2000 1816 26
1818 1817 73
1819 1817 73
1820 1817 40
1821 1817 40
1825 1817 40
1826 1817 40
1827 1817 61
1828 1817 61
1903 1817 22
1904 1817 22
1905 1817 22
1909 1817 22
1910 1817 22
1911 1817 22
1935 1817 52
1936 1817 52
1937 1817 52
1953 1817 40
1954 1817 40
1971 1817 38
1972 1817 38
1973 1817 38
1982 1817 26
1983 1817 26
1992 1817 40
1993 1817 40
1999 1817 26
2000 1817 26
1819 1818 73
1820 1818 40
1821 1818 40
1825 1818 40
1826 1818 40
1827 1818 61
1828 1818 61
1903 1818 22
1904 1818 22
1905 1818 22
1909 1818 22
1910 1818 22
1911 1818 22
1935 1818 52
1936 1818 52
1937 1818 52
1953 1818 40
1954 1818 40
1971 1818 38
1972 1818 38
1973 1818 38
1982 1818 26
1983 1818 26
1992 1818 40
1993 1818 40
1999 1818 26
2000 1818 26
1820 1819 40
1821 1819 40
1825 1819 40
1826 1819 40
1827 1819 61
1828 1819 61
1903 1819 22
1904 1819 22
1905 1819 22
1909 1819 22
1910 1819 22
1911 1819 22
1935 1819 52
1936 1819 52
1937 1819 52
1953 1819 40
1954 1819 40
1971 1819 38
1972 1819 38
1973 1819 38
1982 1819 26
1983 1819 26
1992 1819 40
1993 1819 40
1999 1819 26
2000 1819 26
1821 1820 61
1825 1820 61
1826 1820 61
1827 1820 40
1828 1820 40
1935 1820 26
1936 1820 26
1937 1820 26
1942 1820 26
1943 1820 26
1953 1820 26
1954 1820 26
1961 1820 26
1962 1820 26
1971 1820 40
1972 1820 40
1973 1820 40
1979 1820 26
1980 1820 26
1981 1820 26
1982 1820 40
1983 1820 40
1992 1820 26
1993 1820 26
1999 1820 40
2000 1820 40
1825 1821 61
1826 1821 61
1827 1821 40
1828 1821 40
1935 1821 26
1936 1821 26
1937 1821 26
1942 1821 26
1943 1821 26
1953 1821 26
1954 1821 26
1961 1821 26
1962 1821 26
1971 1821 40
1972 1821 40
1973 1821 40
1979 1821 26
1980 1821 26
1981 1821 26
1982 1821 40
1983 1821 40
1992 1821 26
1993 1821 26
1999 1821 40
2000 1821 40
1826 1825 61
1827 1825 40
1828 1825 40
1935 1825 26
1936 1825 26
1937 1825 26
1942 1825 26
1943 1825 26
1953 1825 26
1954 1825 26
1961 1825 26
1962 1825 26
1971 1825 40
1972 1825 40
1973 1825 40
1979 1825 26
1980 1825 26
1981 1825 26
1982 1825 40
1983 1825 40
1992 1825 26
1993 1825 26
1999 1825 40
2000 1825 40
1827 1826 40
1828 1826 40
1935 1826 26
1936 1826 26
1937 1826 26
1942 1826 26
1943 1826 26
1953 1826 26
1954 1826 26
1961 1826 26
1962 1826 26
1971 1826 40
1972 1826 40
1973 1826 40
1979 1826 26
1980 1826 26
1981 1826 26
1982 1826 40
1983 1826 40
1992 1826 26
1993 1826 26
1999 1826 40
2000 1826 40
1828 1827 61
1935 1827 40
1936 1827 40
1937 1827 40
1953 1827 40
1954 1827 40
1971 1827 26
1972 1827 26
1973 1827 26
1982 1827 26
1983 1827 26
1992 1827 40
1993 1827 40
1999 1827 26
2000 1827 26
1935 1828 40
1936 1828 40
1937 1828 40
1953 1828 40
1954 1828 40
1971 1828 26
1972 1828 26
1973 1828 26
1982 1828 26
1983 1828 26
1992 1828 40
1993 1828 40
1999 1828 26
2000 1828 26
1833 1832 37
1834 1832 24
1835 1832 24
1839 1832 24
1840 1832 24
1841 1832 37
1842 1832 37
1843 1832 37
1848 1832 37
1849 1832 37
1853 1832 24
1854 1832 24
1855 1832 24
1856 1832 24
1860 1832 24
1861 1832 24
1862 1832 24
1866 1832 24
1867 1832 24
1868 1832 24
1873 1832 24
1874 1832 24
1875 1832 24
1876 1832 24
1877 1832 24
1878 1832 24
1879 1832 37
1880 1832 37
1881 1832 37
1894 1832 24
1895 1832 24
1896 1832 24
1897 1832 24
1898 1832 24
1899 1832 24
1900 1832 37
1901 1832 37
1902 1832 37
1834 1833 24
1835 1833 24
1839 1833 24
1840 1833 24
1841 1833 37
1842 1833 37
1843 1833 37
1848 1833 37
1849 1833 37
1853 1833 24
1854 1833 24
1855 1833 24
1856 1833 24
1860 1833 24
1861 1833 24
1862 1833 24
1866 1833 24
1867 1833 24
1868 1833 24
1873 1833 24
1874 1833 24
1875 1833 24
1876 1833 24
1877 1833 24
1878 1833 24
1879 1833 37
1880 1833 37
1881 1833 37
1894 1833 24
1895 1833 24
1896 1833 24
1897 1833 24
1898 1833 24
1899 1833 24
1900 1833 37
1901 1833 37
1902 1833 37
1835 1834 58
1841 1834 38
1842 1834 38
1843 1834 24
1848 1834 38
1849 1834 38
1853 1834 58
1854 1834 58
1866 1834 37
1867 1834 37
1868 1834 37
1876 1834 58
1877 1834 58
1878 1834 58
1879 1834 38
1880 1834 38
1881 1834 36
1897 1834 37
1898 1834 37
1899 1834 37
1900 1834 24
1901 1834 24
1902 1834 24
1841 1835 38
1842 1835 38
1843 1835 24
1848 1835 38
1849 1835 38
1853 1835 58
1854 1835 58
1866 1835 37
1867 1835 37
1868 1835 37
1876 1835 58
1877 1835 58
1878 1835 58
1879 1835 38
1880 1835 38
1881 1835 36
1897 1835 37
1898 1835 37
1899 1835 37
1900 1835 24
1901 1835 24
1902 1835 24
1840 1839 38
1841 1839 38
1842 1839 38
1843 1839 24
1848 1839 38
1849 1839 38
1855 1839 38
1856 1839 38
1860 1839 24
1861 1839 24
1862 1839 24
1873 1839 38
1874 1839 38
1875 1839 38
1879 1839 38
1880 1839 38
1881 1839 36
1894 1839 24
1895 1839 24
1896 1839 24
1900 1839 24
1901 1839 24
1902 1839 24
1841 1840 38
1842 1840 38
1843 1840 24
1848 1840 38
1849 1840 38
1855 1840 38
1856 1840 38
1860 1840 24
1861 1840 24
1862 1840 24
1873 1840 38
1874 1840 38
1875 1840 38
1879 1840 38
1880 1840 38
1881 1840 36
1894 1840 24
1895 1840 24
1896 1840 24
1900 1840 24
1901 1840 24
1902 1840 24
1842 1841 58
1843 1841 37
1848 1841 58
1849 1841 58
1853 1841 38
1854 1841 38
1855 1841 38
1856 1841 38
1860 1841 24
1861 1841 24
1862 1841 24
1866 1841 24
1867 1841 24
1868 1841 24
1873 1841 38
1874 1841 38
1875 1841 38
1876 1841 38
1877 1841 38
1878 1841 38
1879 1841 58
1880 1841 58
1881 1841 56
1894 1841 24
1895 1841 24
1896 1841 24
1897 1841 24
1898 1841 24
1899 1841 24
1900 1841 37
1901 1841 37
1902 1841 37
1843 1842 37
1848 1842 58
1849 1842 58
1853 1842 38
1854 1842 38
1855 1842 38
1856 1842 38
1860 1842 24
1861 1842 24
1862 1842 24
1866 1842 24
1867 1842 24
1868 1842 24
1873 1842 38
1874 1842 38
1875 1842 38
1876 1842 38
1877 1842 38
1878 1842 38
1879 1842 58
1880 1842 58
1881 1842 56
1894 1842 24
1895 1842 24
1896 1842 24
1897 1842 24
1898 1842 24
1899 1842 24
1900 1842 37
1901 1842 37
1902 1842 37
1848 1843 37
1849 1843 37
1853 1843 24
1854 1843 24
1855 1843 24
1856 1843 24
1860 1843 24
1861 1843 24
1862 1843 24
1866 1843 24
1867 1843 24
1868 1843 24
1873 1843 24
1874 1843 24
1875 1843 24
1876 1843 24
1877 1843 24
1878 1843 24
1879 1843 37
1880 1843 37
1881 1843 37
1894 1843 24
1895 1843 24
1896 1843 24
1897 1843 24
1898 1843 24
1899 1843 24
1900 1843 37
1901 1843 37
1902 1843 37
1849 1848 58
1853 1848 38
1854 1848 38
1855 1848 38
1856 1848 38
1860 1848 24
1861 1848 24
1862 1848 24
1866 1848 24
1867 1848 24
1868 1848 24
1873 1848 38
1874 1848 38
1875 1848 38
1876 1848 38
1877 1848 38
1878 1848 38
1879 1848 58
1880 1848 58
1881 1848 56
1894 1848 24
1895 1848 24
1896 1848 24
1897 1848 24
1898 1848 24
1899 1848 24
1900 1848 37
1901 1848 37
1902 1848 37
1853 1849 38
1854 1849 38
1855 1849 38
1856 1849 38
1860 1849 24
1861 1849 24
1862 1849 24
1866 1849 24
1867 1849 24
1868 1849 24
1873 1849 38
1874 1849 38
1875 1849 38
1876 1849 38
1877 1849 38
1878 1849 38
1879 1849 58
1880 1849 58
1881 1849 56
1894 1849 24
1895 1849 24
1896 1849 24
1897 1849 24
1898 1849 24
1899 1849 24
1900 1849 37
1901 1849 37
1902 1849 37
1854 1853 58
1866 1853 37
1867 1853 37
1868 1853 37
1876 1853 58
1877 1853 58
1878 1853 58
1879 1853 38
1880 1853 38
1881 1853 36
1897 1853 37
1898 1853 37
1899 1853 37
1900 1853 24
1901 1853 24
1902 1853 24
1866 1854 37
1867 1854 37
1868 1854 37
1876 1854 58
1877 1854 58
1878 1854 58
1879 1854 38
1880 1854 38
1881 1854 36
1897 1854 37
1898 1854 37
1899 1854 37
1900 1854 24
1901 1854 24
1902 1854 24
1856 1855 38
1860 1855 24
1861 1855 24
1862 1855 24
1873 1855 38
1874 1855 38
1875 1855 38
1879 1855 38
1880 1855 38
1881 1855 36
1894 1855 24
1895 1855 24
1896 1855 24
1900 1855 24
1901 1855 24
1902 1855 24
1860 1856 24
1861 1856 24
1862 1856 24
1873 1856 38
1874 1856 38
1875 1856 38
1879 1856 38
1880 1856 38
1881 1856 36
1894 1856 24
1895 1856 24
1896 1856 24
1900 1856 24
1901 1856 24
1902 1856 24
1861 1860 24
1862 1860 24
1873 1860 24
1874 1860 24
1875 1860 24
1879 1860 24
1880 1860 24
1881 1860 24
1894 1860 24
1895 1860 24
1896 1860 24
1900 1860 24
1901 1860 24
1902 1860 24
1862 1861 24
1873 1861 24
1874 1861 24
1875 1861 24
1879 1861 24
1880 1861 24
1881 1861 24
1894 1861 24
1895 1861 24
1896 1861 24
1900 1861 24
1901 1861 24
1902 1861 24
1873 1862 24
1874 1862 24
1875 1862 24
1879 1862 24
1880 1862 24
1881 1862 24
1894 1862 24
1895 1862 24
1896 1862 24
1900 1862 24
1901 1862 24
1902 1862 24
1867 1866 37
1868 1866 37
1876 1866 37
1877 1866 37
1878 1866 37
1879 1866 24
1880 1866 24
1881 1866 24
1897 1866 37
1898 1866 37
1899 1866 37
1900 1866 24
1901 1866 24
1902 1866 24
1868 1867 37
1876 1867 37
1877 1867 37
1878 1867 37
1879 1867 24
1880 1867 24
1881 1867 24
1897 1867 37
1898 1867 37
1899 1867 37
1900 1867 24
1901 1867 24
1902 1867 24
1876 1868 37
1877 1868 37
1878 1868 37
1879 1868 24
1880 1868 24
1881 1868 24
1897 1868 37
1898 1868 37
1899 1868 37
1900 1868 24
1901 1868 24
1902 1868 24
1874 1873 50
1875 1873 50
1879 1873 50
1880 1873 50
1881 1873 48
1894 1873 36
1895 1873 36
1896 1873 36
1900 1873 36
1901 1873 36
1902 1873 36
1903 1873 25
1904 1873 25
1905 1873 25
1906 1873 22
1907 1873 22
1908 1873 22
1927 1873 22
1928 1873 22
1929 1873 22
1930 1873 22
1931 1873 22
1932 1873 22
1875 1874 50
1879 1874 50
1880 1874 50
1881 1874 48
1894 1874 36
1895 1874 36
1896 1874 36
1900 1874 36
1901 1874 36
1902 1874 36
1903 1874 25
1904 1874 25
1905 1874 25
1906 1874 22
1907 1874 22
1908 1874 22
1927 1874 22
1928 1874 22
1929 1874 22
1930 1874 22
1931 1874 22
1932 1874 22
1879 1875 50
1880 1875 50
1881 1875 48
1894 1875 36
1895 1875 36
1896 1875 36
1900 1875 36
1901 1875 36
1902 1875 36
1903 1875 25
1904 1875 25
1905 1875 25
1906 1875 22
1907 1875 22
1908 1875 22
1927 1875 22
1928 1875 22
1929 1875 22
1930 1875 22
1931 1875 22
1932 1875 22
1877 1876 76
1878 1876 76
1879 1876 56
1880 1876 56
1881 1876 54
1897 1876 49
1898 1876 49
1899 1876 49
1900 1876 36
1901 1876 36
1902 1876 36
1903 1876 34
1904 1876 34
1905 1876 34
1909 1876 34
1910 1876 34
1911 1876 34
1920 1876 22
1921 1876 22
1922 1876 22
1930 1876 22
1931 1876 22
1932 1876 22
1878 1877 76
1879 1877 56
1880 1877 56
1881 1877 54
1897 1877 49
1898 1877 49
1899 1877 49
1900 1877 36
1901 1877 36
1902 1877 36
1903 1877 34
1904 1877 34
1905 1877 34
1909 1877 34
1910 1877 34
1911 1877 34
1920 1877 22
1921 1877 22
1922 1877 22
1930 1877 22
1931 1877 22
1932 1877 22
1879 1878 56
1880 1878 56
1881 1878 54
1897 1878 49
1898 1878 49
1899 1878 49
1900 1878 36
1901 1878 36
1902 1878 36
1903 1878 34
1904 1878 34
1905 1878 34
1909 1878 34
1910 1878 34
1911 1878 34
1920 1878 22
1921 1878 22
1922 1878 22
1930 1878 22
1931 1878 22
1932 1878 22
1880 1879 82
1881 1879 80
1894 1879 36
1895 1879 36
1896 1879 36
1897 1879 36
1898 1879 36
1899 1879 36
1900 1879 55
1901 1879 55
1902 1879 55
1903 1879 46
1904 1879 46
1905 1879 46
1906 1879 22
1907 1879 22
1908 1879 22
1909 1879 34
1910 1879 34
1911 1879 34
1920 1879 22
1921 1879 22
1922 1879 22
1927 1879 22
1928 1879 22
1929 1879 22
1930 1879 34
1931 1879 34
1932 1879 34
1881 1880 80
1894 1880 36
1895 1880 36
1896 1880 36
1897 1880 36
1898 1880 36
1899 1880 36
1900 1880 55
1901 1880 55
1902 1880 55
1903 1880 46
1904 1880 46
1905 1880 46
1906 1880 22
1907 1880 22
1908 1880 22
1909 1880 34
1910 1880 34
1911 1880 34
1920 1880 22
1921 1880 22
1922 1880 22
1927 1880 22
1928 1880 22
1929 1880 22
1930 1880 34
1931 1880 34
1932 1880 34
1894 1881 36
1895 1881 36
1896 1881 36
1897 1881 36
1898 1881 36
1899 1881 36
1900 1881 55
1901 1881 55
1902 1881 55
1903 1881 46
1904 1881 46
1905 1881 46
1906 1881 22
1907 1881 22
1908 1881 22
1909 1881 34
1910 1881 34
1911 1881 34
1920 1881 22
1921 1881 22
1922 1881 22
1927 1881 22
1928 1881 22
1929 1881 22
1930 1881 34
1931 1881 34
1932 1881 34
1895 1894 36
1896 1894 36
1900 1894 36
1901 1894 36
1902 1894 36
1903 1894 22
1904 1894 22
1905 1894 22
1906 1894 22
1907 1894 22
1908 1894 22
1927 1894 22
1928 1894 22
1929 1894 22
1930 1894 22
1931 1894 22
1932 1894 22
1896 1895 36
1900 1895 36
1901 1895 36
1902 1895 36
1903 1895 22
1904 1895 22
1905 1895 22
1906 1895 22
1907 1895 22
1908 1895 22
1927 1895 22
1928 1895 22
1929 1895 22
1930 1895 22
1931 1895 22
1932 1895 22
1900 1896 36
1901 1896 36
1902 1896 36
1903 1896 22
1904 1896 22
1905 1896 22
1906 1896 22
1907 1896 22
1908 1896 22
1927 1896 22
1928 1896 22
1929 1896 22
1930 1896 22
1931 1896 22
1932 1896 22
1898 1897 49
1899 1897 49
1900 1897 36
1901 1897 36
1902 1897 36
1903 1897 22
1904 1897 22
1905 1897 22
1909 1897 22
1910 1897 22
1911 1897 22
1920 1897 22
1921 1897 22
1922 1897 22
1930 1897 22
1931 1897 22
1932 1897 22
1899 1898 49
1900 1898 36
1901 1898 36
1902 1898 36
1903 1898 22
1904 1898 22
1905 1898 22
1909 1898 22
1910 1898 22
1911 1898 22
1920 1898 22
1921 1898 22
1922 1898 22
1930 1898 22
1931 1898 22
1932 1898 22
1900 1899 36
1901 1899 36
1902 1899 36
1903 1899 22
1904 1899 22
1905 1899 22
1909 1899 22
1910 1899 22
1911 1899 22
1920 1899 22
1921 1899 22
1922 1899 22
1930 1899 22
1931 1899 22
1932 1899 22
1901 1900 55
1902 1900 55
1903 1900 34
1904 1900 34
1905 1900 34
1906 1900 22
1907 1900 22
1908 1900 22
1909 1900 22
1910 1900 22
1911 1900 22
1920 1900 22
1921 1900 22
1922 1900 22
1927 1900 22
1928 1900 22
1929 1900 22
1930 1900 34
1931 1900 34
1932 1900 34
1902 1901 55
1903 1901 34
1904 1901 34
1905 1901 34
1906 1901 22
1907 1901 22
1908 1901 22
1909 1901 22
1910 1901 22
1911 1901 22
1920 1901 22
1921 1901 22
1922 1901 22
1927 1901 22
1928 1901 22
1929 1901 22
1930 1901 34
1931 1901 34
1932 1901 34
1903 1902 34
1904 1902 34
1905 1902 34
1906 1902 22
1907 1902 22
1908 1902 22
1909 1902 22
1910 1902 22
1911 1902 22
1920 1902 22
1921 1902 22
1922 1902 22
1927 1902 22
1928 1902 22
1929 1902 22
1930 1902 34
1931 1902 34
1932 1902 34
1904 1903 70
1905 1903 70
1906 1903 34
1907 1903 34
1908 1903 34
1909 1903 52
1910 1903 52
1911 1903 52
1920 1903 34
1921 1903 34
1922 1903 34
1927 1903 34
1928 1903 34
1929 1903 34
1930 1903 52
1931 1903 52
1932 1903 52
1935 1903 34
1936 1903 34
1937 1903 34
1958 1903 22
1959 1903 22
1960 1903 22
1968 1903 34
1969 1903 34
1970 1903 34
1971 1903 46
1972 1903 46
1973 1903 46
1979 1903 25
1980 1903 25
1981 1903 25
1996 1903 22
1997 1903 22
1998 1903 22
1905 1904 70
1906 1904 34
1907 1904 34
1908 1904 34
1909 1904 52
1910 1904 52
1911 1904 52
1920 1904 34
1921 1904 34
1922 1904 34
1927 1904 34
1928 1904 34
1929 1904 34
1930 1904 52
1931 1904 52
1932 1904 52
1935 1904 34
1936 1904 34
1937 1904 34
1958 1904 22
1959 1904 22
1960 1904 22
1968 1904 34
1969 1904 34
1970 1904 34
1971 1904 46
1972 1904 46
1973 1904 46
1979 1904 25
1980 1904 25
1981 1904 25
1996 1904 22
1997 1904 22
1998 1904 22
1906 1905 34
1907 1905 34
1908 1905 34
1909 1905 52
1910 1905 52
1911 1905 52
1920 1905 34
1921 1905 34
1922 1905 34
1927 1905 34
1928 1905 34
1929 1905 34
1930 1905 52
1931 1905 52
1932 1905 52
1935 1905 34
1936 1905 34
1937 1905 34
1958 1905 22
1959 1905 22
1960 1905 22
1968 1905 34
1969 1905 34
1970 1905 34
1971 1905 46
1972 1905 46
1973 1905 46
1979 1905 25
1980 1905 25
1981 1905 25
1996 1905 22
1997 1905 22
1998 1905 22
1907 1906 34
1908 1906 34
1927 1906 34
1928 1906 34
1929 1906 34
1930 1906 34
1931 1906 34
1932 1906 34
1958 1906 22
1959 1906 22
1960 1906 22
1968 1906 22
1969 1906 22
1970 1906 22
1971 1906 22
1972 1906 22
1973 1906 22
1979 1906 22
1980 1906 22
1981 1906 22
1908 1907 34
1927 1907 34
1928 1907 34
1929 1907 34
1930 1907 34
1931 1907 34
1932 1907 34
1958 1907 22
1959 1907 22
1960 1907 22
1968 1907 22
1969 1907 22
1970 1907 22
1971 1907 22
1972 1907 22
1973 1907 22
1979 1907 22
1980 1907 22
1981 1907 22
1927 1908 34
1928 1908 34
1929 1908 34
1930 1908 34
1931 1908 34
1932 1908 34
1958 1908 22
1959 1908 22
1960 1908 22
1968 1908 22
1969 1908 22
1970 1908 22
1971 1908 22
1972 1908 22
1973 1908 22
1979 1908 22
1980 1908 22
1981 1908 22
1910 1909 52
1911 1909 52
1920 1909 34
1921 1909 34
1922 1909 34
1930 1909 34
1931 1909 34
1932 1909 34
1935 1909 34
1936 1909 34
1937 1909 34
1968 1909 22
1969 1909 22
1970 1909 22
1971 1909 34
1972 1909 34
1973 1909 34
1996 1909 22
1997 1909 22
1998 1909 22
1911 1910 52
1920 1910 34
1921 1910 34
1922 1910 34
1930 1910 34
1931 1910 34
1932 1910 34
1935 1910 34
1936 1910 34
1937 1910 34
1968 1910 22
1969 1910 22
1970 1910 22
1971 1910 34
1972 1910 34
1973 1910 34
1996 1910 22
1997 1910 22
1998 1910 22
1920 1911 34
1921 1911 34
1922 1911 34
1930 1911 34
1931 1911 34
1932 1911 34
1935 1911 34
1936 1911 34
1937 1911 34
1968 1911 22
1969 1911 22
1970 1911 22
1971 1911 34
1972 1911 34
1973 1911 34
1996 1911 22
1997 1911 22
1998 1911 22
1921 1920 34
1922 1920 34
1930 1920 34
1931 1920 34
1932 1920 34
1935 1920 22
1936 1920 22
1937 1920 22
1968 1920 22
1969 1920 22
1970 1920 22
1971 1920 22
1972 1920 22
1973 1920 22
1996 1920 22
1997 1920 22
1998 1920 22
1922 1921 34
1930 1921 34
1931 1921 34
1932 1921 34
1935 1921 22
1936 1921 22
1937 1921 22
1968 1921 22
1969 1921 22
1970 1921 22
1971 1921 22
1972 1921 22
1973 1921 22
1996 1921 22
1997 1921 22
1998 1921 22
1930 1922 34
1931 1922 34
1932 1922 34
1935 1922 22
1936 1922 22
1937 1922 22
1968 1922 22
1969 1922 22
1970 1922 22
1971 1922 22
1972 1922 22
1973 1922 22
1996 1922 22
1997 1922 22
1998 1922 22
1928 1927 34
1929 1927 34
1930 1927 34
1931 1927 34
1932 1927 34
1958 1927 22
1959 1927 22
1960 1927 22
1968 1927 22
1969 1927 22
1970 1927 22
1971 1927 22
1972 1927 22
1973 1927 22
1979 1927 22
1980 1927 22
1981 1927 22
1929 1928 34
1930 1928 34
1931 1928 34
1932 1928 34
1958 1928 22
1959 1928 22
1960 1928 22
1968 1928 22
1969 1928 22
1970 1928 22
1971 1928 22
1972 1928 22
1973 1928 22
1979 1928 22
1980 1928 22
1981 1928 22
1930 1929 34
1931 1929 34
1932 1929 34
1958 1929 22
1959 1929 22
1960 1929 22
1968 1929 22
1969 1929 22
1970 1929 22
1971 1929 22
1972 1929 22
1973 1929 22
1979 1929 22
1980 1929 22
1981 1929 22
1931 1930 52
1932 1930 52
1935 1930 22
1936 1930 22
1937 1930 22
1958 1930 22
1959 1930 22
1960 1930 22
1968 1930 34
1969 1930 34
1970 1930 34
1971 1930 34
1972 1930 34
1973 1930 34
1979 1930 22
1980 1930 22
1981 1930 22
1996 1930 22
1997 1930 22
1998 1930 22
1932 1931 52
1935 1931 22
1936 1931 22
1937 1931 22
1958 1931 22
1959 1931 22
1960 1931 22
1968 1931 34
1969 1931 34
1970 1931 34
1971 1931 34
1972 1931 34
1973 1931 34
1979 1931 22
1980 1931 22
1981 1931 22
1996 1931 22
1997 1931 22
1998 1931 22
1935 1932 22
1936 1932 22
1937 1932 22
1958 1932 22
1959 1932 22
1960 1932 22
1968 1932 34
1969 1932 34
1970 1932 34
1971 1932 34
1972 1932 34
1973 1932 34
1979 1932 22
1980 1932 22
1981 1932 22
1996 1932 22
1997 1932 22
1998 1932 22
1934 1933 37
1935 1933 24
1936 1933 24
1937 1933 24
1942 1933 24
1943 1933 24
1947 1933 24
1948 1933 24
1949 1933 24
1953 1933 24
1954 1933 24
1958 1933 24
1959 1933 24
1960 1933 24
1961 1933 24
1962 1933 24
1963 1933 37
1968 1933 37
1969 1933 37
1970 1933 37
1971 1933 37
1972 1933 37
1973 1933 37
1974 1933 24
1979 1933 24
1980 1933 24
1981 1933 24
1982 1933 37
1983 1933 37
1992 1933 24
1993 1933 24
1994 1933 24
1995 1933 24
1996 1933 24
1997 1933 24
1998 1933 24
1999 1933 37
2000 1933 37
1935 1934 24
1936 1934 24
1937 1934 24
1942 1934 24
1943 1934 24
1947 1934 24
1948 1934 24
1949 1934 24
1953 1934 24
1954 1934 24
1958 1934 24
1959 1934 24
1960 1934 24
1961 1934 24
1962 1934 24
1963 1934 37
1968 1934 37
1969 1934 37
1970 1934 37
1971 1934 37
1972 1934 37
1973 1934 37
1974 1934 24
1979 1934 24
1980 1934 24
1981 1934 24
1982 1934 37
1983 1934 37
1992 1934 24
1993 1934 24
1994 1934 24
1995 1934 24
1996 1934 24
1997 1934 24
1998 1934 24
1999 1934 37
2000 1934 37
1936 1935 76
1937 1935 76
1953 1935 58
1954 1935 58
1963 1935 24
1968 1935 36
1969 1935 36
1970 1935 36
1971 1935 56
1972 1935 56
1973 1935 56
1974 1935 37
1982 1935 38
1983 1935 38
1992 1935 58
1993 1935 58
1994 1935 37
1995 1935 37
1996 1935 49
1997 1935 49
1998 1935 49
1999 1935 38
2000 1935 38
1937 1936 76
1953 1936 58
1954 1936 58
1963 1936 24
1968 1936 36
1969 1936 36
1970 1936 36
1971 1936 56
1972 1936 56
1973 1936 56
1974 1936 37
1982 1936 38
1983 1936 38
1992 1936 58
1993 1936 58
1994 1936 37
1995 1936 37
1996 1936 49
1997 1936 49
1998 1936 49
1999 1936 38
2000 1936 38
1953 1937 58
1954 1937 58
1963 1937 24
1968 1937 36
1969 1937 36
1970 1937 36
1971 1937 56
1972 1937 56
1973 1937 56
1974 1937 37
1982 1937 38
1983 1937 38
1992 1937 58
1993 1937 58
1994 1937 37
1995 1937 37
1996 1937 49
1997 1937 49
1998 1937 49
1999 1937 38
2000 1937 38
1943 1942 38
1947 1942 24
1948 1942 24
1949 1942 24
1958 1942 24
1959 1942 24
1960 1942 24
1961 1942 38
1962 1942 38
1963 1942 24
1968 1942 24
1969 1942 24
1970 1942 24
1971 1942 38
1972 1942 38
1973 1942 38
1979 1942 38
1980 1942 38
1981 1942 38
1982 1942 38
1983 1942 38
1999 1942 38
2000 1942 38
1947 1943 24
1948 1943 24
1949 1943 24
1958 1943 24
1959 1943 24
1960 1943 24
1961 1943 38
1962 1943 38
1963 1943 24
1968 1943 24
1969 1943 24
1970 1943 24
1971 1943 38
1972 1943 38
1973 1943 38
1979 1943 38
1980 1943 38
1981 1943 38
1982 1943 38
1983 1943 38
1999 1943 38
2000 1943 38
1948 1947 24
1949 1947 24
1958 1947 24
1959 1947 24
1960 1947 24
1961 1947 24
1962 1947 24
1963 1947 24
1968 1947 24
1969 1947 24
1970 1947 24
1971 1947 24
1972 1947 24
1973 1947 24
1979 1947 24
1980 1947 24
1981 1947 24
1982 1947 24
1983 1947 24
1999 1947 24
2000 1947 24
1949 1948 24
1958 1948 24
1959 1948 24
1960 1948 24
1961 1948 24
1962 1948 24
1963 1948 24
1968 1948 24
1969 1948 24
1970 1948 24
1971 1948 24
1972 1948 24
1973 1948 24
1979 1948 24
1980 1948 24
1981 1948 24
1982 1948 24
1983 1948 24
1999 1948 24
2000 1948 24
1958 1949 24
1959 1949 24
1960 1949 24
1961 1949 24
1962 1949 24
1963 1949 24
1968 1949 24
1969 1949 24
1970 1949 24
1971 1949 24
1972 1949 24
1973 1949 24
1979 1949 24
1980 1949 24
1981 1949 24
1982 1949 24
1983 1949 24
1999 1949 24
2000 1949 24
1954 1953 58
1963 1953 24
1968 1953 24
1969 1953 24
1970 1953 24
1971 1953 38
1972 1953 38
1973 1953 38
1974 1953 37
1982 1953 38
1983 1953 38
1992 1953 58
1993 1953 58
1994 1953 37
1995 1953 37
1996 1953 37
1997 1953 37
1998 1953 37
1999 1953 38
2000 1953 38
1963 1954 24
1968 1954 24
1969 1954 24
1970 1954 24
1971 1954 38
1972 1954 38
1973 1954 38
1974 1954 37
1982 1954 38
1983 1954 38
1992 1954 58
1993 1954 58
1994 1954 37
1995 1954 37
1996 1954 37
1997 1954 37
1998 1954 37
1999 1954 38
2000 1954 38
1959 1958 36
1960 1958 36
1961 1958 24
1962 1958 24
1963 1958 24
1968 1958 36
1969 1958 36
1970 1958 36
1971 1958 36
1972 1958 36
1973 1958 36
1979 1958 36
1980 1958 36
1981 1958 36
1982 1958 24
1983 1958 24
1999 1958 24
2000 1958 24
1960 1959 36
1961 1959 24
1962 1959 24
1963 1959 24
1968 1959 36
1969 1959 36
1970 1959 36
1971 1959 36
1972 1959 36
1973 1959 36
1979 1959 36
1980 1959 36
1981 1959 36
1982 1959 24
1983 1959 24
1999 1959 24
2000 1959 24
1961 1960 24
1962 1960 24
1963 1960 24
1968 1960 36
1969 1960 36
1970 1960 36
1971 1960 36
1972 1960 36
1973 1960 36
1979 1960 36
1980 1960 36
1981 1960 36
1982 1960 24
1983 1960 24
1999 1960 24
2000 1960 24
1962 1961 38
1963 1961 24
1968 1961 24
1969 1961 24
1970 1961 24
1971 1961 38
1972 1961 38
1973 1961 38
1979 1961 38
1980 1961 38
1981 1961 38
1982 1961 38
1983 1961 38
1999 1961 38
2000 1961 38
1963 1962 24
1968 1962 24
1969 1962 24
1970 1962 24
1971 1962 38
1972 1962 38
1973 1962 38
1979 1962 38
1980 1962 38
1981 1962 38
1982 1962 38
1983 1962 38
1999 1962 38
2000 1962 38
1968 1963 37
1969 1963 37
1970 1963 37
1971 1963 37
1972 1963 37
1973 1963 37
1974 1963 24
1979 1963 24
1980 1963 24
1981 1963 24
1982 1963 37
1983 1963 37
1992 1963 24
1993 1963 24
1994 1963 24
1995 1963 24
1996 1963 24
1997 1963 24
1998 1963 24
1999 1963 37
2000 1963 37
1969 1968 55
1970 1968 55
1971 1968 55
1972 1968 55
1973 1968 55
1974 1968 24
1979 1968 36
1980 1968 36
1981 1968 36
1982 1968 37
1983 1968 37
1992 1968 24
1993 1968 24
1994 1968 24
1995 1968 24
1996 1968 36
1997 1968 36
1998 1968 36
1999 1968 37
2000 1968 37
1970 1969 55
1971 1969 55
1972 1969 55
1973 1969 55
1974 1969 24
1979 1969 36
1980 1969 36
1981 1969 36
1982 1969 37
1983 1969 37
1992 1969 24
1993 1969 24
1994 1969 24
1995 1969 24
1996 1969 36
1997 1969 36
1998 1969 36
1999 1969 37
2000 1969 37
1971 1970 55
1972 1970 55
1973 1970 55
1974 1970 24
1979 1970 36
1980 1970 36
1981 1970 36
1982 1970 37
1983 1970 37
1992 1970 24
1993 1970 24
1994 1970 24
1995 1970 24
1996 1970 36
1997 1970 36
1998 1970 36
1999 1970 37
2000 1970 37
1972 1971 82
1973 1971 82
1974 1971 24
1979 1971 50
1980 1971 50
1981 1971 50
1982 1971 58
1983 1971 58
1992 1971 38
1993 1971 38
1994 1971 24
1995 1971 24
1996 1971 36
1997 1971 36
1998 1971 36
1999 1971 58
2000 1971 58
1973 1972 82
1974 1972 24
1979 1972 50
1980 1972 50
1981 1972 50
1982 1972 58
1983 1972 58
1992 1972 38
1993 1972 38
1994 1972 24
1995 1972 24
1996 1972 36
1997 1972 36
1998 1972 36
1999 1972 58
2000 1972 58
1974 1973 24
1979 1973 50
1980 1973 50
1981 1973 50
1982 1973 58
1983 1973 58
1992 1973 38
1993 1973 38
1994 1973 24
1995 1973 24
1996 1973 36
1997 1973 36
1998 1973 36
1999 1973 58
2000 1973 58
1982 1974 24
1983 1974 24
1992 1974 37
1993 1974 37
1994 1974 37
1995 1974 37
1996 1974 37
1997 1974 37
1998 1974 37
1999 1974 24
2000 1974 24
1980 1979 50
1981 1979 50
1982 1979 38
1983 1979 38
1999 1979 38
2000 1979 38
1981 1980 50
1982 1980 38
1983 1980 38
1999 1980 38
2000 1980 38
1982 1981 38
1983 1981 38
1999 1981 38
2000 1981 38
1983 1982 58
1992 1982 38
1993 1982 38
1994 1982 24
1995 1982 24
1996 1982 24
1997 1982 24
1998 1982 24
1999 1982 58
2000 1982 58
1992 1983 38
1993 1983 38
1994 1983 24
1995 1983 24
1996 1983 24
1997 1983 24
1998 1983 24
1999 1983 58
2000 1983 58
1993 1992 58
1994 1992 37
1995 1992 37
1996 1992 37
1997 1992 37
1998 1992 37
1999 1992 38
2000 1992 38
1994 1993 37
1995 1993 37
1996 1993 37
1997 1993 37
1998 1993 37
1999 1993 38
2000 1993 38
1995 1994 37
1996 1994 37
1997 1994 37
1998 1994 37
1999 1994 24
2000 1994 24
1996 1995 37
1997 1995 37
1998 1995 37
1999 1995 24
2000 1995 24
1997 1996 49
1998 1996 49
1999 1996 24
2000 1996 24
1998 1997 49
1999 1997 24
2000 1997 24
1999 1998 24
2000 1998 24
2000 1999 58
