%%MatrixMarket matrix coordinate integer symmetric
%%GraphBLAS type uint32_t
2003 2003 33153
2 1 22
3 1 12
4 1 20
5 1 20
6 1 18
7 1 22
8 1 22
9 1 13
10 1 20
11 1 20
12 1 18
157 1 19
158 1 19
159 1 11
160 1 18
161 1 18
162 1 18
163 1 17
164 1 18
165 1 11
166 1 16
167 1 16
168 1 18
3 2 12
4 2 20
5 2 20
6 2 18
7 2 22
8 2 22
9 2 13
10 2 20
11 2 20
12 2 18
157 2 19
158 2 19
159 2 11
160 2 18
161 2 18
162 2 18
163 2 17
164 2 18
165 2 11
166 2 16
167 2 16
168 2 18
4 3 12
5 3 12
7 3 12
8 3 12
9 3 12
10 3 12
11 3 12
157 3 12
158 3 12
163 3 12
164 3 12
5 4 20
6 4 18
7 4 20
8 4 20
9 4 12
10 4 20
11 4 20
12 4 18
157 4 18
158 4 18
160 4 16
161 4 16
162 4 18
163 4 16
164 4 16
166 4 14
167 4 14
168 4 18
6 5 18
7 5 20
8 5 20
9 5 12
10 5 20
11 5 20
12 5 18
157 5 18
158 5 18
160 5 16
161 5 16
162 5 18
163 5 16
164 5 16
166 5 14
167 5 14
168 5 18
7 6 18
8 6 18
10 6 18
11 6 18
12 6 18
157 6 16
158 6 16
160 6 16
161 6 16
162 6 18
163 6 14
164 6 14
166 6 14
167 6 14
168 6 18
8 7 34
9 7 21
10 7 31
11 7 31
12 7 28
13 7 22
14 7 22
15 7 13
16 7 20
17 7 20
18 7 18
151 7 22
152 7 21
153 7 14
154 7 19
155 7 18
156 7 18
157 7 30
158 7 30
159 7 18
160 7 29
161 7 29
162 7 28
163 7 17
164 7 18
165 7 11
166 7 16
167 7 16
168 7 18
9 8 21
10 8 31
11 8 31
12 8 28
13 8 22
14 8 22
15 8 13
16 8 20
17 8 20
18 8 18
151 8 22
152 8 21
153 8 14
154 8 19
155 8 18
156 8 18
157 8 30
158 8 30
159 8 18
160 8 29
161 8 29
162 8 28
163 8 17
164 8 18
165 8 11
166 8 16
167 8 16
168 8 18
10 9 19
11 9 19
13 9 14
14 9 14
15 9 13
16 9 12
17 9 12
151 9 14
152 9 14
153 9 10
157 9 20
158 9 20
159 9 11
163 9 13
164 9 13
11 10 31
12 10 28
13 10 20
14 10 20
15 10 12
16 10 20
17 10 20
18 10 18
151 10 20
152 10 19
154 10 17
155 10 16
156 10 18
157 10 28
158 10 28
160 10 26
161 10 26
162 10 28
163 10 16
164 10 16
166 10 14
167 10 14
168 10 18
12 11 28
13 11 20
14 11 20
15 11 12
16 11 20
17 11 20
18 11 18
151 11 20
152 11 19
154 11 17
155 11 16
156 11 18
157 11 28
158 11 28
160 11 26
161 11 26
162 11 28
163 11 16
164 11 16
166 11 14
167 11 14
168 11 18
13 12 18
14 12 18
16 12 18
17 12 18
18 12 18
151 12 18
152 12 17
154 12 17
155 12 16
156 12 18
157 12 25
158 12 25
160 12 26
161 12 26
162 12 28
163 12 14
164 12 14
166 12 14
167 12 14
168 12 18
14 13 34
15 13 20
16 13 31
17 13 31
18 13 28
19 13 22
20 13 22
21 13 14
22 13 20
23 13 20
24 13 18
145 13 20
146 13 20
147 13 12
148 13 18
149 13 19
150 13 18
151 13 33
152 13 32
153 13 22
154 13 29
155 13 28
156 13 28
157 13 20
158 13 20
159 13 11
160 13 20
161 13 20
162 13 18
15 14 20
16 14 31
17 14 31
18 14 28
19 14 22
20 14 22
21 14 14
22 14 20
23 14 20
24 14 18
145 14 20
146 14 20
147 14 12
148 14 18
149 14 19
150 14 18
151 14 33
152 14 32
153 14 22
154 14 29
155 14 28
156 14 28
157 14 20
158 14 20
159 14 11
160 14 20
161 14 20
162 14 18
16 15 19
17 15 19
19 15 13
20 15 13
21 15 13
22 15 12
23 15 12
145 15 13
146 15 13
151 15 20
152 15 20
153 15 14
157 15 13
158 15 13
17 16 31
18 16 28
19 16 20
20 16 20
21 16 12
22 16 20
23 16 20
24 16 18
145 16 19
146 16 18
148 16 16
149 16 17
150 16 18
151 16 30
152 16 29
154 16 26
155 16 25
156 16 28
157 16 19
158 16 19
160 16 18
161 16 18
162 16 18
18 17 28
19 17 20
20 17 20
21 17 12
22 17 20
23 17 20
24 17 18
145 17 19
146 17 18
148 17 16
149 17 17
150 17 18
151 17 30
152 17 29
154 17 26
155 17 25
156 17 28
157 17 19
158 17 19
160 17 18
161 17 18
162 17 18
19 18 18
20 18 18
22 18 18
23 18 18
24 18 18
145 18 17
146 18 16
148 18 16
149 18 17
150 18 18
151 18 27
152 18 26
154 18 26
155 18 25
156 18 28
157 18 17
158 18 17
160 18 18
161 18 18
162 18 18
20 19 34
21 19 21
22 19 31
23 19 31
24 19 28
25 19 22
26 19 22
27 19 12
28 19 20
29 19 20
30 19 18
139 19 20
140 19 20
141 19 12
142 19 18
143 19 18
144 19 18
145 19 32
146 19 32
147 19 19
148 19 29
149 19 30
150 19 28
151 19 21
152 19 20
153 19 14
154 19 19
155 19 18
156 19 18
21 20 21
22 20 31
23 20 31
24 20 28
25 20 22
26 20 22
27 20 12
28 20 20
29 20 20
30 20 18
139 20 20
140 20 20
141 20 12
142 20 18
143 20 18
144 20 18
145 20 32
146 20 32
147 20 19
148 20 29
149 20 30
150 20 28
151 20 21
152 20 20
153 20 14
154 20 19
155 20 18
156 20 18
22 21 19
23 21 19
25 21 13
26 21 13
27 21 12
28 21 12
29 21 12
139 21 13
140 21 13
145 21 20
146 21 21
147 21 12
151 21 14
152 21 14
153 21 10
23 22 31
24 22 28
25 22 20
26 22 20
27 22 12
28 22 20
29 22 20
30 22 18
139 22 18
140 22 18
142 22 16
143 22 16
144 22 18
145 22 30
146 22 29
148 22 26
149 22 27
150 22 28
151 22 19
152 22 18
154 22 17
155 22 16
156 22 18
24 23 28
25 23 20
26 23 20
27 23 12
28 23 20
29 23 20
30 23 18
139 23 18
140 23 18
142 23 16
143 23 16
144 23 18
145 23 30
146 23 29
148 23 26
149 23 27
150 23 28
151 23 19
152 23 18
154 23 17
155 23 16
156 23 18
25 24 18
26 24 18
28 24 18
29 24 18
30 24 18
139 24 16
140 24 16
142 24 16
143 24 16
144 24 18
145 24 27
146 24 26
148 24 26
149 24 27
150 24 28
151 24 17
152 24 16
154 24 17
155 24 16
156 24 18
26 25 22
27 25 12
28 25 20
29 25 20
30 25 18
139 25 20
140 25 20
141 25 12
142 25 18
143 25 18
144 25 18
145 25 21
146 25 21
147 25 12
148 25 19
149 25 20
150 25 18
27 26 12
28 26 20
29 26 20
30 26 18
139 26 20
140 26 20
141 26 12
142 26 18
143 26 18
144 26 18
145 26 21
146 26 21
147 26 12
148 26 19
149 26 20
150 26 18
28 27 12
29 27 12
139 27 12
140 27 12
145 27 12
146 27 12
29 28 20
30 28 18
139 28 18
140 28 18
142 28 16
143 28 16
144 28 18
145 28 20
146 28 19
148 28 17
149 28 18
150 28 18
30 29 18
139 29 18
140 29 18
142 29 16
143 29 16
144 29 18
145 29 20
146 29 19
148 29 17
149 29 18
150 29 18
139 30 16
140 30 16
142 30 16
143 30 16
144 30 18
145 30 18
146 30 17
148 30 17
149 30 18
150 30 18
56 55 22
57 55 14
58 55 20
59 55 20
60 55 18
61 55 22
62 55 22
63 55 14
64 55 20
65 55 20
66 55 18
79 55 21
80 55 22
81 55 14
82 55 20
83 55 20
84 55 18
187 55 20
188 55 20
189 55 14
190 55 17
191 55 18
192 55 18
57 56 14
58 56 20
59 56 20
60 56 18
61 56 22
62 56 22
63 56 14
64 56 20
65 56 20
66 56 18
79 56 21
80 56 22
81 56 14
82 56 20
83 56 20
84 56 18
187 56 20
188 56 20
189 56 14
190 56 17
191 56 18
192 56 18
58 57 12
59 57 12
61 57 14
62 57 14
63 57 14
64 57 12
65 57 12
79 57 14
80 57 14
81 57 10
187 57 14
188 57 14
189 57 10
59 58 20
60 58 18
61 58 20
62 58 20
63 58 12
64 58 20
65 58 20
66 58 18
79 58 19
80 58 20
82 58 18
83 58 18
84 58 18
187 58 18
188 58 18
190 58 15
191 58 16
192 58 18
60 59 18
61 59 20
62 59 20
63 59 12
64 59 20
65 59 20
66 59 18
79 59 19
80 59 20
82 59 18
83 59 18
84 59 18
187 59 18
188 59 18
190 59 15
191 59 16
192 59 18
61 60 18
62 60 18
64 60 18
65 60 18
66 60 18
79 60 17
80 60 18
82 60 18
83 60 18
84 60 18
187 60 16
188 60 16
190 60 15
191 60 16
192 60 18
62 61 34
63 61 21
64 61 31
65 61 31
66 61 28
67 61 21
68 61 20
69 61 11
70 61 20
71 61 19
72 61 16
73 61 19
74 61 18
75 61 11
76 61 20
77 61 19
78 61 16
79 61 33
80 61 34
81 61 21
82 61 29
83 61 29
84 61 28
187 61 20
188 61 20
189 61 14
190 61 17
191 61 18
192 61 18
63 62 21
64 62 31
65 62 31
66 62 28
67 62 21
68 62 20
69 62 11
70 62 20
71 62 19
72 62 16
73 62 19
74 62 18
75 62 11
76 62 20
77 62 19
78 62 16
79 62 33
80 62 34
81 62 21
82 62 29
83 62 29
84 62 28
187 62 20
188 62 20
189 62 14
190 62 17
191 62 18
192 62 18
64 63 19
65 63 19
67 63 12
68 63 13
69 63 10
70 63 12
71 63 11
73 63 13
74 63 13
79 63 21
80 63 21
81 63 14
187 63 14
188 63 14
189 63 10
65 64 31
66 64 28
67 64 19
68 64 18
69 64 10
70 64 20
71 64 19
72 64 16
73 64 18
74 64 16
76 64 18
77 64 18
78 64 16
79 64 30
80 64 31
82 64 26
83 64 26
84 64 28
187 64 18
188 64 18
190 64 15
191 64 16
192 64 18
66 65 28
67 65 19
68 65 18
69 65 10
70 65 20
71 65 19
72 65 16
73 65 18
74 65 16
76 65 18
77 65 18
78 65 16
79 65 30
80 65 31
82 65 26
83 65 26
84 65 28
187 65 18
188 65 18
190 65 15
191 65 16
192 65 18
67 66 18
68 66 16
70 66 18
71 66 18
72 66 16
73 66 16
74 66 14
76 66 18
77 66 18
78 66 16
79 66 27
80 66 28
82 66 26
83 66 26
84 66 28
187 66 16
188 66 16
190 66 15
191 66 16
192 66 18
68 67 31
70 67 30
71 67 30
72 67 26
73 67 30
74 67 29
75 67 17
76 67 30
77 67 29
78 67 26
79 67 21
80 67 21
81 67 13
82 67 18
83 67 18
84 67 18
85 67 21
86 67 21
87 67 12
88 67 19
89 67 19
90 67 18
109 67 20
110 67 19
111 67 13
112 67 19
113 67 20
114 67 18
69 68 18
70 68 29
71 68 28
73 68 29
74 68 30
75 68 18
76 68 28
77 68 27
79 68 20
80 68 20
81 68 13
82 68 16
83 68 16
84 68 16
85 68 20
86 68 20
87 68 13
88 68 18
89 68 18
90 68 16
109 68 19
110 68 18
111 68 13
112 68 17
113 68 18
114 68 16
70 69 17
73 69 17
74 69 18
75 69 10
79 69 11
80 69 11
85 69 11
86 69 11
87 69 10
88 69 10
89 69 10
109 69 11
110 69 11
71 70 30
72 70 26
73 70 29
74 70 27
76 70 27
77 70 27
78 70 26
79 70 20
80 70 20
82 70 16
83 70 16
84 70 18
85 70 20
86 70 20
87 70 12
88 70 20
89 70 20
90 70 18
109 70 19
110 70 18
112 70 17
113 70 18
114 70 18
72 71 26
73 71 28
74 71 26
76 71 27
77 71 27
78 71 26
79 71 19
80 71 19
82 71 16
83 71 16
84 71 18
85 71 19
86 71 19
87 71 11
88 71 19
89 71 19
90 71 18
109 71 18
110 71 17
112 71 17
113 71 18
114 71 18
73 72 24
76 72 25
77 72 25
78 72 26
79 72 16
80 72 16
82 72 15
83 72 15
84 72 16
85 72 16
86 72 16
88 72 16
89 72 16
90 72 16
109 72 15
110 72 14
112 72 15
113 72 16
114 72 16
74 73 45
76 73 42
77 73 42
78 73 38
79 73 30
80 73 30
81 73 15
84 73 26
85 73 21
86 73 21
87 73 13
88 73 20
89 73 20
90 73 18
109 73 31
110 73 30
111 73 17
112 73 28
113 73 29
114 73 28
928 73 18
929 73 18
930 73 12
931 73 17
932 73 17
933 73 16
1000 73 20
1001 73 20
1002 73 12
1003 73 19
1004 73 19
1005 73 18
1026 73 30
1027 73 28
1029 73 28
1030 73 28
1031 73 24
75 74 22
76 74 40
77 74 39
79 74 28
80 74 28
81 74 16
84 74 23
85 74 20
86 74 20
87 74 13
88 74 18
89 74 18
90 74 16
109 74 29
110 74 28
111 74 18
112 74 26
113 74 27
114 74 25
928 74 17
929 74 17
930 74 12
931 74 15
932 74 15
933 74 14
1000 74 19
1001 74 19
1002 74 12
1003 74 17
1004 74 17
1005 74 16
1026 74 29
1027 74 29
1029 74 26
1030 74 26
76 75 22
79 75 15
80 75 15
81 75 14
82 75 13
83 75 13
85 75 11
86 75 11
109 75 15
110 75 13
111 75 14
112 75 13
113 75 14
928 75 10
929 75 10
1000 75 10
1001 75 10
1026 75 17
1027 75 17
77 76 43
78 76 39
79 76 30
80 76 30
81 76 16
82 76 28
83 76 28
84 76 28
85 76 19
86 76 19
88 76 17
89 76 17
90 76 17
109 76 28
111 76 15
112 76 29
113 76 29
114 76 27
928 76 20
929 76 20
931 76 18
932 76 18
933 76 18
1000 76 19
1001 76 19
1003 76 17
1004 76 17
1005 76 17
1026 76 30
1027 76 28
1029 76 27
1030 76 27
1031 76 25
78 77 39
79 77 29
80 77 29
81 77 15
82 77 27
83 77 27
84 77 28
85 77 18
86 77 18
88 77 17
89 77 17
90 77 17
110 77 26
111 77 14
112 77 27
113 77 28
114 77 27
928 77 19
929 77 19
931 77 18
932 77 18
933 77 18
1000 77 18
1001 77 18
1003 77 17
1004 77 17
1005 77 17
1026 77 29
1027 77 27
1029 77 27
1030 77 27
1031 77 25
79 78 25
80 78 25
82 78 24
83 78 24
84 78 25
85 78 16
86 78 16
88 78 16
89 78 16
90 78 16
109 78 24
110 78 23
112 78 24
113 78 25
114 78 25
928 78 16
929 78 16
931 78 16
932 78 16
933 78 16
1000 78 16
1001 78 16
1003 78 16
1004 78 16
1005 78 16
1026 78 26
1029 78 26
1030 78 26
1031 78 26
80 79 50
81 79 28
82 79 43
83 79 43
84 79 42
187 79 32
188 79 32
189 79 19
191 79 27
192 79 27
876 79 21
877 79 14
878 79 19
879 79 19
880 79 17
884 79 21
928 79 32
929 79 32
930 79 20
931 79 29
932 79 29
933 79 27
1026 79 21
1027 79 19
1029 79 19
1030 79 19
1031 79 16
81 80 29
82 80 44
83 80 44
84 80 43
187 80 32
188 80 32
189 80 20
190 80 27
191 80 28
192 80 28
876 80 22
877 80 14
878 80 20
879 80 20
880 80 18
884 80 22
928 80 33
929 80 33
930 80 20
931 80 30
932 80 30
933 80 28
1026 80 21
1027 80 19
1029 80 19
1030 80 19
1031 80 16
82 81 23
83 81 23
187 81 18
188 81 18
189 81 20
190 81 13
191 81 14
876 81 14
877 81 10
884 81 14
928 81 21
929 81 21
930 81 14
1026 81 13
1027 81 13
83 82 44
84 82 41
187 82 28
188 82 28
189 82 16
190 82 27
191 82 28
192 82 28
876 82 20
878 82 18
879 82 18
880 82 18
884 82 20
928 82 29
929 82 29
931 82 26
932 82 26
933 82 26
1026 82 18
1027 82 16
1029 82 16
1030 82 16
1031 82 15
84 83 41
187 83 28
188 83 28
189 83 16
190 83 27
191 83 28
192 83 28
876 83 20
878 83 18
879 83 18
880 83 18
884 83 20
928 83 29
929 83 29
931 83 26
932 83 26
933 83 26
1026 83 18
1027 83 16
1029 83 16
1030 83 16
1031 83 15
187 84 26
188 84 26
190 84 25
191 84 26
192 84 28
876 84 18
878 84 18
879 84 18
880 84 18
884 84 18
928 84 28
929 84 28
931 84 28
932 84 28
933 84 28
1026 84 18
1027 84 16
1029 84 18
1030 84 18
1031 84 16
86 85 34
87 85 20
88 85 31
89 85 31
90 85 28
91 85 22
92 85 22
93 85 12
94 85 20
95 85 20
96 85 18
109 85 32
110 85 31
111 85 20
112 85 30
113 85 31
114 85 28
115 85 19
116 85 20
117 85 11
118 85 17
119 85 17
120 85 18
87 86 20
88 86 31
89 86 31
90 86 28
91 86 22
92 86 22
93 86 12
94 86 20
95 86 20
96 86 18
109 86 32
110 86 31
111 86 20
112 86 30
113 86 31
114 86 28
115 86 19
116 86 20
117 86 11
118 86 17
119 86 17
120 86 18
88 87 19
89 87 19
91 87 13
92 87 13
93 87 12
94 87 12
95 87 12
109 87 20
110 87 20
111 87 12
115 87 13
116 87 13
89 88 31
90 88 28
91 88 20
92 88 20
93 88 12
94 88 20
95 88 20
96 88 18
109 88 29
110 88 28
112 88 27
113 88 28
114 88 28
115 88 18
116 88 18
118 88 15
119 88 15
120 88 18
90 89 28
91 89 20
92 89 20
93 89 12
94 89 20
95 89 20
96 89 18
109 89 29
110 89 28
112 89 27
113 89 28
114 89 28
115 89 18
116 89 18
118 89 15
119 89 15
120 89 18
91 90 18
92 90 18
94 90 18
95 90 18
96 90 18
109 90 26
110 90 25
112 90 27
113 90 28
114 90 28
115 90 16
116 90 16
118 90 15
119 90 15
120 90 18
92 91 22
93 91 12
94 91 20
95 91 20
96 91 18
109 91 21
110 91 20
111 91 13
112 91 19
113 91 20
114 91 18
115 91 19
116 91 20
117 91 11
118 91 17
119 91 17
120 91 18
93 92 12
94 92 20
95 92 20
96 92 18
109 92 21
110 92 20
111 92 13
112 92 19
113 92 20
114 92 18
115 92 19
116 92 20
117 92 11
118 92 17
119 92 17
120 92 18
94 93 12
95 93 12
109 93 12
110 93 12
115 93 12
116 93 12
95 94 20
96 94 18
109 94 19
110 94 18
112 94 17
113 94 18
114 94 18
115 94 18
116 94 18
118 94 15
119 94 15
120 94 18
96 95 18
109 95 19
110 95 18
112 95 17
113 95 18
114 95 18
115 95 18
116 95 18
118 95 15
119 95 15
120 95 18
109 96 17
110 96 16
112 96 17
113 96 18
114 96 18
115 96 16
116 96 16
118 96 15
119 96 15
120 96 18
110 109 46
111 109 25
112 109 43
113 109 44
114 109 41
115 109 31
116 109 32
117 109 14
118 109 26
120 109 27
1000 109 31
1001 109 31
1002 109 19
1003 109 27
1004 109 27
1005 109 26
1019 109 20
1021 109 21
1022 109 11
1023 109 19
1024 109 19
1025 109 15
1026 109 20
1027 109 18
1029 109 18
1030 109 18
1031 109 15
111 110 24
113 110 43
114 110 40
115 110 30
116 110 31
117 110 13
119 110 25
120 110 26
1000 110 30
1001 110 30
1002 110 19
1003 110 26
1004 110 26
1005 110 25
1019 110 19
1021 110 20
1022 110 11
1023 110 18
1024 110 18
1025 110 14
1026 110 19
1027 110 17
1029 110 17
1030 110 17
1031 110 14
112 111 24
113 111 25
115 111 15
116 111 16
117 111 15
118 111 13
119 111 13
1000 111 20
1001 111 20
1002 111 12
1019 111 13
1021 111 13
1026 111 13
1027 111 13
113 112 45
114 112 42
115 112 26
116 112 27
117 112 14
118 112 27
119 112 26
120 112 27
1000 112 30
1001 112 30
1003 112 26
1004 112 26
1005 112 27
1019 112 19
1021 112 19
1023 112 17
1024 112 17
1025 112 15
1026 112 19
1027 112 17
1029 112 17
1030 112 17
1031 112 15
114 113 43
115 113 27
116 113 28
117 113 15
118 113 27
119 113 27
120 113 28
1000 113 31
1001 113 31
1003 113 27
1004 113 27
1005 113 28
1019 113 20
1021 113 20
1023 113 18
1024 113 18
1025 113 16
1026 113 20
1027 113 18
1029 113 18
1030 113 18
1031 113 16
115 114 26
116 114 26
118 114 25
119 114 25
120 114 28
1000 114 28
1001 114 28
1003 114 27
1004 114 27
1005 114 28
1019 114 18
1021 114 18
1023 114 18
1024 114 18
1025 114 16
1026 114 18
1027 114 16
1029 114 18
1030 114 18
1031 114 16
116 115 31
120 115 26
1000 115 19
1001 115 19
1002 115 13
1003 115 17
1004 115 17
1005 115 16
1019 115 18
1021 115 19
1022 115 11
1023 115 18
1024 115 18
1025 115 14
117 116 13
120 116 26
1000 116 20
1001 116 20
1002 116 13
1003 116 17
1004 116 17
1005 116 16
1019 116 19
1021 116 20
1022 116 11
1023 116 18
1024 116 18
1025 116 14
118 117 13
119 117 13
1000 117 11
1001 117 11
1019 117 11
1021 117 11
119 118 26
120 118 25
1000 118 17
1001 118 17
1003 118 14
1004 118 14
1005 118 15
1019 118 17
1021 118 17
1023 118 15
1024 118 15
1025 118 13
120 119 25
1000 119 17
1001 119 17
1003 119 14
1004 119 14
1005 119 15
1019 119 17
1021 119 17
1023 119 15
1024 119 15
1025 119 13
1000 120 18
1001 120 18
1003 120 17
1004 120 17
1005 120 18
1019 120 18
1021 120 18
1023 120 18
1024 120 18
1025 120 16
140 139 32
141 139 14
144 139 26
145 139 31
146 139 31
147 139 15
148 139 27
149 139 28
150 139 26
958 139 20
959 139 20
960 139 13
961 139 18
962 139 18
963 139 16
972 139 19
973 139 10
974 139 18
975 139 18
976 139 16
977 139 19
141 140 14
144 140 26
145 140 31
146 140 31
147 140 15
148 140 27
149 140 28
150 140 26
958 140 20
959 140 20
960 140 13
961 140 18
962 140 18
963 140 16
972 140 19
973 140 10
974 140 18
975 140 18
976 140 16
977 140 19
142 141 14
143 141 14
145 141 15
146 141 15
147 141 15
148 141 15
149 141 16
958 141 12
959 141 12
972 141 12
977 141 12
143 142 28
144 142 26
145 142 27
146 142 27
147 142 13
148 142 27
149 142 28
150 142 26
958 142 18
959 142 18
961 142 16
962 142 16
963 142 16
972 142 18
974 142 16
975 142 16
976 142 16
977 142 18
144 143 26
145 143 27
146 143 27
147 143 13
148 143 27
149 143 28
150 143 26
958 143 18
959 143 18
961 143 16
962 143 16
963 143 16
972 143 18
974 143 16
975 143 16
976 143 16
977 143 18
145 144 28
146 144 27
148 144 27
149 144 28
150 144 28
958 144 18
959 144 18
961 144 18
962 144 18
963 144 18
972 144 18
974 144 18
975 144 18
976 144 18
977 144 18
146 145 48
148 145 42
149 145 43
150 145 42
151 145 31
152 145 31
153 145 18
154 145 27
156 145 27
944 145 20
945 145 20
946 145 13
947 145 19
948 145 19
949 145 16
958 145 32
959 145 32
960 145 20
961 145 30
962 145 29
963 145 27
972 145 20
973 145 10
974 145 20
975 145 20
976 145 18
977 145 20
147 146 24
149 146 43
150 146 41
151 146 31
152 146 31
153 146 18
155 146 26
156 146 26
944 146 20
945 146 20
946 146 13
947 146 18
948 146 18
949 146 15
958 146 32
959 146 32
960 146 21
961 146 29
962 146 28
963 146 26
972 146 20
973 146 10
974 146 19
975 146 19
976 146 17
977 146 20
148 147 22
149 147 23
151 147 16
152 147 15
153 147 17
154 147 14
155 147 14
944 147 12
945 147 12
958 147 19
959 147 19
960 147 12
972 147 12
977 147 12
149 148 43
150 148 41
151 148 27
153 148 14
154 148 28
155 148 27
156 148 26
944 148 18
945 148 18
947 148 16
948 148 16
949 148 15
958 148 29
959 148 29
961 148 26
962 148 25
963 148 26
972 148 19
974 148 17
975 148 17
976 148 17
977 148 19
150 149 42
152 149 27
153 149 15
154 149 28
155 149 27
156 149 27
944 149 19
945 149 19
947 149 17
948 149 17
949 149 16
958 149 30
959 149 30
961 149 27
962 149 26
963 149 27
972 149 20
974 149 18
975 149 18
976 149 18
977 149 20
151 150 27
152 150 26
154 150 27
155 150 26
156 150 28
944 150 18
945 150 18
947 150 18
948 150 18
949 150 17
958 150 28
959 150 28
961 150 28
962 150 27
963 150 28
972 150 18
974 150 18
975 150 18
976 150 18
977 150 18
152 151 49
153 151 29
154 151 43
155 151 42
156 151 42
157 151 32
158 151 32
159 151 15
160 151 30
161 151 30
162 151 28
896 151 21
897 151 22
898 151 11
899 151 20
900 151 20
901 151 18
944 151 33
945 151 33
946 151 20
947 151 30
948 151 30
949 151 26
958 151 21
959 151 21
960 151 14
961 151 19
962 151 18
963 151 17
153 152 28
154 152 42
156 152 41
157 152 32
158 152 31
159 152 14
160 152 29
161 152 29
162 152 27
896 152 20
897 152 21
898 152 11
899 152 19
900 152 19
901 152 17
944 152 32
945 152 32
946 152 20
947 152 29
948 152 29
949 152 25
958 152 20
959 152 20
960 152 14
961 152 18
962 152 17
963 152 16
154 153 23
155 153 22
157 153 17
158 153 17
159 153 15
160 153 16
161 153 16
896 153 13
897 153 13
944 153 21
945 153 21
946 153 13
958 153 14
959 153 14
960 153 10
155 154 41
156 154 41
157 154 27
159 154 14
160 154 29
161 154 29
162 154 27
896 154 19
897 154 19
899 154 17
900 154 17
901 154 17
944 154 29
945 154 29
947 154 26
948 154 26
949 154 25
958 154 19
959 154 19
961 154 17
962 154 16
963 154 17
156 155 40
158 155 26
159 155 13
160 155 28
161 155 28
162 155 26
896 155 18
897 155 18
899 155 16
900 155 16
901 155 16
944 155 28
945 155 28
947 155 25
948 155 25
949 155 24
958 155 18
959 155 18
961 155 16
962 155 15
963 155 16
157 156 27
158 156 27
160 156 28
161 156 28
162 156 28
896 156 18
897 156 18
899 156 18
900 156 18
901 156 18
944 156 28
945 156 28
947 156 28
948 156 28
949 156 27
958 156 18
959 156 18
961 156 18
962 156 17
963 156 18
158 157 47
160 157 40
161 157 40
162 157 40
163 157 28
164 157 29
165 157 12
168 157 26
850 157 18
851 157 11
852 157 18
853 157 18
854 157 16
855 157 19
896 157 29
897 157 30
898 157 18
899 157 28
900 157 28
901 157 25
944 157 20
945 157 20
946 157 13
947 157 19
948 157 19
949 157 17
160 158 40
161 158 40
162 158 40
163 158 28
164 158 29
165 158 12
168 158 26
850 158 18
851 158 11
852 158 18
853 158 18
854 158 16
855 158 19
896 158 29
897 158 30
898 158 18
899 158 28
900 158 28
901 158 25
944 158 20
945 158 20
946 158 13
947 158 19
948 158 19
949 158 17
160 159 21
161 159 21
163 159 10
164 159 11
165 159 13
166 159 12
167 159 12
850 159 10
855 159 10
896 159 17
897 159 17
944 159 10
945 159 10
161 160 44
162 160 41
165 160 14
166 160 26
167 160 26
168 160 26
850 160 18
852 160 16
853 160 16
854 160 16
855 160 18
896 160 29
897 160 29
899 160 26
900 160 26
901 160 26
944 160 20
945 160 20
947 160 18
948 160 18
949 160 18
162 161 41
165 161 14
166 161 26
167 161 26
168 161 26
850 161 18
852 161 16
853 161 16
854 161 16
855 161 18
896 161 29
897 161 29
899 161 26
900 161 26
901 161 26
944 161 20
945 161 20
947 161 18
948 161 18
949 161 18
163 162 24
164 162 24
166 162 24
167 162 24
168 162 28
850 162 18
852 162 18
853 162 18
854 162 18
855 162 18
896 162 28
897 162 28
899 162 28
900 162 28
901 162 28
944 162 18
945 162 18
947 162 18
948 162 18
949 162 18
164 163 29
168 163 24
850 163 16
851 163 11
852 163 16
853 163 16
854 163 14
855 163 17
896 163 16
897 163 17
898 163 11
899 163 16
900 163 16
901 163 14
165 164 11
168 164 24
850 164 17
851 164 11
852 164 16
853 164 16
854 164 14
855 164 18
896 164 17
897 164 18
898 164 11
899 164 16
900 164 16
901 164 14
166 165 12
167 165 12
850 165 11
855 165 11
896 165 11
897 165 11
167 166 26
168 166 24
850 166 16
852 166 14
853 166 14
854 166 14
855 166 16
896 166 16
897 166 16
899 166 14
900 166 14
901 166 14
168 167 24
850 167 16
852 167 14
853 167 14
854 167 14
855 167 16
896 167 16
897 167 16
899 167 14
900 167 14
901 167 14
850 168 18
852 168 18
853 168 18
854 168 18
855 168 18
896 168 18
897 168 18
899 168 18
900 168 18
901 168 18
188 187 32
189 187 18
192 187 26
876 187 20
877 187 14
878 187 18
879 187 18
880 187 16
884 187 20
928 187 20
929 187 20
930 187 14
931 187 18
932 187 18
933 187 16
189 188 18
192 188 26
876 188 20
877 188 14
878 188 18
879 188 18
880 188 16
884 188 20
928 188 20
929 188 20
930 188 14
931 188 18
932 188 18
933 188 16
190 189 13
191 189 14
876 189 14
877 189 10
884 189 14
928 189 14
929 189 14
930 189 10
191 190 27
192 190 25
876 190 17
878 190 15
879 190 15
880 190 15
884 190 17
928 190 17
929 190 17
931 190 15
932 190 15
933 190 15
192 191 26
876 191 18
878 191 16
879 191 16
880 191 16
884 191 18
928 191 18
929 191 18
931 191 16
932 191 16
933 191 16
876 192 18
878 192 18
879 192 18
880 192 18
884 192 18
928 192 18
929 192 18
931 192 18
932 192 18
933 192 18
196 194 16
198 194 16
200 194 10
202 194 10
204 194 10
206 194 10
208 194 10
210 194 10
212 194 16
214 194 16
216 194 16
314 194 10
316 194 10
318 194 10
326 194 10
328 194 10
330 194 10
198 196 16
200 196 10
202 196 10
204 196 10
206 196 10
208 196 10
210 196 10
212 196 16
214 196 16
216 196 16
314 196 10
316 196 10
318 196 10
326 196 10
328 196 10
330 196 10
200 198 10
202 198 10
204 198 10
206 198 10
208 198 10
210 198 10
212 198 16
214 198 16
216 198 16
314 198 10
316 198 10
318 198 10
326 198 10
328 198 10
330 198 10
202 200 16
204 200 16
206 200 16
208 200 16
210 200 16
212 200 10
214 200 10
216 200 10
218 200 10
220 200 10
222 200 10
224 200 10
226 200 10
228 200 10
204 202 16
206 202 16
208 202 16
210 202 16
212 202 10
214 202 10
216 202 10
218 202 10
220 202 10
222 202 10
224 202 10
226 202 10
228 202 10
206 204 16
208 204 16
210 204 16
212 204 10
214 204 10
216 204 10
218 204 10
220 204 10
222 204 10
224 204 10
226 204 10
228 204 10
206 205 34
207 205 34
208 205 34
209 205 34
210 205 34
211 205 22
212 205 22
213 205 22
214 205 22
215 205 21
216 205 21
217 205 22
218 205 21
219 205 21
220 205 22
221 205 22
222 205 22
424 205 22
425 205 22
426 205 22
427 205 22
428 205 22
429 205 22
430 205 34
431 205 33
432 205 32
433 205 34
434 205 34
435 205 34
436 205 22
437 205 21
438 205 22
439 205 22
440 205 22
441 205 22
207 206 34
208 206 43
209 206 34
210 206 43
211 206 22
212 206 28
213 206 22
214 206 28
215 206 21
216 206 27
217 206 22
218 206 27
219 206 21
220 206 28
221 206 22
222 206 28
224 206 10
226 206 10
228 206 10
424 206 22
425 206 22
426 206 22
427 206 22
428 206 22
429 206 22
430 206 34
431 206 33
432 206 32
433 206 34
434 206 34
435 206 34
436 206 22
437 206 21
438 206 22
439 206 22
440 206 22
441 206 22
208 207 34
209 207 34
210 207 34
211 207 22
212 207 22
213 207 22
214 207 22
215 207 21
216 207 21
217 207 22
218 207 21
219 207 21
220 207 22
221 207 22
222 207 22
424 207 22
425 207 22
426 207 22
427 207 22
428 207 22
429 207 22
430 207 34
431 207 33
432 207 32
433 207 34
434 207 34
435 207 34
436 207 22
437 207 21
438 207 22
439 207 22
440 207 22
441 207 22
209 208 34
210 208 43
211 208 22
212 208 28
213 208 22
214 208 28
215 208 21
216 208 27
217 208 22
218 208 27
219 208 21
220 208 28
221 208 22
222 208 28
224 208 10
226 208 10
228 208 10
424 208 22
425 208 22
426 208 22
427 208 22
428 208 22
429 208 22
430 208 34
431 208 33
432 208 32
433 208 34
434 208 34
435 208 34
436 208 22
437 208 21
438 208 22
439 208 22
440 208 22
441 208 22
210 209 34
211 209 22
212 209 22
213 209 22
214 209 22
215 209 21
216 209 21
217 209 22
218 209 21
219 209 21
220 209 22
221 209 22
222 209 22
424 209 22
425 209 22
426 209 22
427 209 22
428 209 22
429 209 22
430 209 34
431 209 33
432 209 32
433 209 34
434 209 34
435 209 34
436 209 22
437 209 21
438 209 22
439 209 22
440 209 22
441 209 22
211 210 22
212 210 28
213 210 22
214 210 28
215 210 21
216 210 27
217 210 22
218 210 27
219 210 21
220 210 28
221 210 22
222 210 28
224 210 10
226 210 10
228 210 10
424 210 22
425 210 22
426 210 22
427 210 22
428 210 22
429 210 22
430 210 34
431 210 33
432 210 32
433 210 34
434 210 34
435 210 34
436 210 22
437 210 21
438 210 22
439 210 22
440 210 22
441 210 22
212 211 34
213 211 34
214 211 34
215 211 33
216 211 33
313 211 22
314 211 22
315 211 22
316 211 22
317 211 22
318 211 22
418 211 22
419 211 22
420 211 22
421 211 22
422 211 22
423 211 22
424 211 34
425 211 34
426 211 34
427 211 34
428 211 34
429 211 34
430 211 22
431 211 21
432 211 21
433 211 22
434 211 22
435 211 22
213 212 34
214 212 43
215 212 33
216 212 42
313 212 22
314 212 28
315 212 22
316 212 28
317 212 22
318 212 28
326 212 10
328 212 10
330 212 10
418 212 22
419 212 22
420 212 22
421 212 22
422 212 22
423 212 22
424 212 34
425 212 34
426 212 34
427 212 34
428 212 34
429 212 34
430 212 22
431 212 21
432 212 21
433 212 22
434 212 22
435 212 22
214 213 34
215 213 33
216 213 33
313 213 22
314 213 22
315 213 22
316 213 22
317 213 22
318 213 22
418 213 22
419 213 22
420 213 22
421 213 22
422 213 22
423 213 22
424 213 34
425 213 34
426 213 34
427 213 34
428 213 34
429 213 34
430 213 22
431 213 21
432 213 21
433 213 22
434 213 22
435 213 22
215 214 33
216 214 42
313 214 22
314 214 28
315 214 22
316 214 28
317 214 22
318 214 28
326 214 10
328 214 10
330 214 10
418 214 22
419 214 22
420 214 22
421 214 22
422 214 22
423 214 22
424 214 34
425 214 34
426 214 34
427 214 34
428 214 34
429 214 34
430 214 22
431 214 21
432 214 21
433 214 22
434 214 22
435 214 22
313 215 21
314 215 21
315 215 21
316 215 21
317 215 21
318 215 21
418 215 21
419 215 21
420 215 21
421 215 21
422 215 21
423 215 21
424 215 33
425 215 33
426 215 33
427 215 33
428 215 33
429 215 33
430 215 21
431 215 20
432 215 20
433 215 21
434 215 21
435 215 21
313 216 21
314 216 27
315 216 21
316 216 27
317 216 21
318 216 27
326 216 10
328 216 10
330 216 10
418 216 21
419 216 21
420 216 21
421 216 21
422 216 21
423 216 21
424 216 33
425 216 33
426 216 33
427 216 33
428 216 33
429 216 33
430 216 21
431 216 20
432 216 20
433 216 21
434 216 21
435 216 21
218 217 33
219 217 33
220 217 34
221 217 34
222 217 34
301 217 22
302 217 22
303 217 22
304 217 22
305 217 22
306 217 22
430 217 22
431 217 21
432 217 20
433 217 22
434 217 22
435 217 22
436 217 34
437 217 33
438 217 34
439 217 34
440 217 34
441 217 34
442 217 22
443 217 22
444 217 22
445 217 22
446 217 22
447 217 22
220 218 42
221 218 33
222 218 42
224 218 16
226 218 16
228 218 16
301 218 21
302 218 27
303 218 21
304 218 27
305 218 21
306 218 27
308 218 10
310 218 10
312 218 10
430 218 21
431 218 20
432 218 19
433 218 21
434 218 21
435 218 21
436 218 33
437 218 32
438 218 33
439 218 33
440 218 33
441 218 33
442 218 21
443 218 21
444 218 21
445 218 21
446 218 21
447 218 21
220 219 33
221 219 33
222 219 33
301 219 21
302 219 21
303 219 21
304 219 21
305 219 21
306 219 21
430 219 21
431 219 20
432 219 19
433 219 21
434 219 21
435 219 21
436 219 33
437 219 32
438 219 33
439 219 33
440 219 33
441 219 33
442 219 21
443 219 21
444 219 21
445 219 21
446 219 21
447 219 21
221 220 34
222 220 43
224 220 16
226 220 16
228 220 16
301 220 22
302 220 28
303 220 22
304 220 28
305 220 22
306 220 28
308 220 10
310 220 10
312 220 10
430 220 22
431 220 21
432 220 20
433 220 22
434 220 22
435 220 22
436 220 34
437 220 33
438 220 34
439 220 34
440 220 34
441 220 34
442 220 22
443 220 22
444 220 22
445 220 22
446 220 22
447 220 22
222 221 34
301 221 22
302 221 22
303 221 22
304 221 22
305 221 22
306 221 22
430 221 22
431 221 21
432 221 20
433 221 22
434 221 22
435 221 22
436 221 34
437 221 33
438 221 34
439 221 34
440 221 34
441 221 34
442 221 22
443 221 22
444 221 22
445 221 22
446 221 22
447 221 22
224 222 16
226 222 16
228 222 16
301 222 22
302 222 28
303 222 22
304 222 28
305 222 22
306 222 28
308 222 10
310 222 10
312 222 10
430 222 22
431 222 21
432 222 20
433 222 22
434 222 22
435 222 22
436 222 34
437 222 33
438 222 34
439 222 34
440 222 34
441 222 34
442 222 22
443 222 22
444 222 22
445 222 22
446 222 22
447 222 22
226 224 16
228 224 16
302 224 10
304 224 10
306 224 10
308 224 10
310 224 10
312 224 10
228 226 16
302 226 10
304 226 10
306 226 10
308 226 10
310 226 10
312 226 10
302 228 10
304 228 10
306 228 10
308 228 10
310 228 10
312 228 10
250 248 16
252 248 16
254 248 10
256 248 10
258 248 10
272 248 10
274 248 10
276 248 10
278 248 16
280 248 16
282 248 16
284 248 10
286 248 10
288 248 10
296 248 10
298 248 10
300 248 10
252 250 16
254 250 10
256 250 10
258 250 10
272 250 10
274 250 10
276 250 10
278 250 16
280 250 16
282 250 16
284 250 10
286 250 10
288 250 10
296 250 10
298 250 10
300 250 10
254 252 10
256 252 10
258 252 10
272 252 10
274 252 10
276 252 10
278 252 16
280 252 16
282 252 16
284 252 10
286 252 10
288 252 10
296 252 10
298 252 10
300 252 10
256 254 16
258 254 16
260 254 10
262 254 10
264 254 10
266 254 10
268 254 10
270 254 10
272 254 16
274 254 16
276 254 16
278 254 10
280 254 10
282 254 10
258 256 16
260 256 10
262 256 10
264 256 10
266 256 10
268 256 10
270 256 10
272 256 16
274 256 16
276 256 16
278 256 10
280 256 10
282 256 10
260 258 10
262 258 10
264 258 10
266 258 10
268 258 10
270 258 10
272 258 16
274 258 16
276 258 16
278 258 10
280 258 10
282 258 10
262 260 16
264 260 16
266 260 16
268 260 16
270 260 16
272 260 10
274 260 10
276 260 10
338 260 10
340 260 10
342 260 10
344 260 10
346 260 10
348 260 10
264 262 16
266 262 16
268 262 16
270 262 16
272 262 10
274 262 10
276 262 10
338 262 10
340 262 10
342 262 10
344 262 10
346 262 10
348 262 10
266 264 16
268 264 16
270 264 16
272 264 10
274 264 10
276 264 10
338 264 10
340 264 10
342 264 10
344 264 10
346 264 10
348 264 10
269 265 16
270 265 16
271 265 10
275 265 10
276 265 10
343 265 10
347 265 10
348 265 10
373 265 10
377 265 10
378 265 10
379 265 16
383 265 16
384 265 16
385 265 10
389 265 10
390 265 10
268 266 16
270 266 16
272 266 10
274 266 10
276 266 10
338 266 10
340 266 10
342 266 10
344 266 10
346 266 10
348 266 10
270 268 16
272 268 10
274 268 10
276 268 10
338 268 10
340 268 10
342 268 10
344 268 10
346 268 10
348 268 10
270 269 16
271 269 10
275 269 10
276 269 10
343 269 10
347 269 10
348 269 10
373 269 10
377 269 10
378 269 10
379 269 16
383 269 16
384 269 16
385 269 10
389 269 10
390 269 10
271 270 10
272 270 10
274 270 10
275 270 10
276 270 20
338 270 10
340 270 10
342 270 10
343 270 10
344 270 10
346 270 10
347 270 10
348 270 20
373 270 10
377 270 10
378 270 10
379 270 16
383 270 16
384 270 16
385 270 10
389 270 10
390 270 10
275 271 16
276 271 16
277 271 10
281 271 10
282 271 10
373 271 16
377 271 16
378 271 16
379 271 10
383 271 10
384 271 10
448 271 10
452 271 10
453 271 10
274 272 16
276 272 16
278 272 10
280 272 10
282 272 10
276 274 16
278 274 10
280 274 10
282 274 10
276 275 16
277 275 10
281 275 10
282 275 10
373 275 16
377 275 16
378 275 16
379 275 10
383 275 10
384 275 10
448 275 10
452 275 10
453 275 10
277 276 10
278 276 10
280 276 10
281 276 10
282 276 20
373 276 16
377 276 16
378 276 16
379 276 10
383 276 10
384 276 10
448 276 10
452 276 10
453 276 10
281 277 16
282 277 16
295 277 10
299 277 10
300 277 10
373 277 10
377 277 10
378 277 10
448 277 16
452 277 16
453 277 16
454 277 10
458 277 10
459 277 10
280 278 16
282 278 16
284 278 10
286 278 10
288 278 10
296 278 10
298 278 10
300 278 10
282 280 16
284 280 10
286 280 10
288 280 10
296 280 10
298 280 10
300 280 10
282 281 16
295 281 10
299 281 10
300 281 10
373 281 10
377 281 10
378 281 10
448 281 16
452 281 16
453 281 16
454 281 10
458 281 10
459 281 10
284 282 10
286 282 10
288 282 10
295 282 10
296 282 10
298 282 10
299 282 10
300 282 20
373 282 10
377 282 10
378 282 10
448 282 16
452 282 16
453 282 16
454 282 10
458 282 10
459 282 10
286 284 16
288 284 16
296 284 16
298 284 16
300 284 16
776 284 10
778 284 10
780 284 10
782 284 10
784 284 10
786 284 10
288 286 16
296 286 16
298 286 16
300 286 16
776 286 10
778 286 10
780 286 10
782 286 10
784 286 10
786 286 10
296 288 16
298 288 16
300 288 16
776 288 10
778 288 10
780 288 10
782 288 10
784 288 10
786 288 10
299 295 16
300 295 16
448 295 10
452 295 10
453 295 10
454 295 16
458 295 16
459 295 16
787 295 10
791 295 10
792 295 10
811 295 10
815 295 10
816 295 10
298 296 16
300 296 16
776 296 10
778 296 10
780 296 10
782 296 10
784 296 10
786 296 10
300 298 16
776 298 10
778 298 10
780 298 10
782 298 10
784 298 10
786 298 10
300 299 16
448 299 10
452 299 10
453 299 10
454 299 16
458 299 16
459 299 16
787 299 10
791 299 10
792 299 10
811 299 10
815 299 10
816 299 10
448 300 10
452 300 10
453 300 10
454 300 16
458 300 16
459 300 16
776 300 10
778 300 10
780 300 10
782 300 10
784 300 11
786 300 10
787 300 10
791 300 11
792 300 10
811 300 10
815 300 10
816 300 10
302 301 34
303 301 34
304 301 34
305 301 34
306 301 34
436 301 22
437 301 22
438 301 22
439 301 22
440 301 22
441 301 22
442 301 34
443 301 34
444 301 34
445 301 34
446 301 34
447 301 34
727 301 22
728 301 22
729 301 22
730 301 22
731 301 22
732 301 22
733 301 22
734 301 22
735 301 22
736 301 22
737 301 22
738 301 22
303 302 34
304 302 46
305 302 34
306 302 46
308 302 16
310 302 16
312 302 16
436 302 22
437 302 22
438 302 22
439 302 22
440 302 22
441 302 22
442 302 34
443 302 34
444 302 34
445 302 34
446 302 34
447 302 34
727 302 22
728 302 22
729 302 23
730 302 23
731 302 23
732 302 22
733 302 22
734 302 22
735 302 22
736 302 22
737 302 22
738 302 22
752 302 10
754 302 13
756 302 10
758 302 10
760 302 10
762 302 10
304 303 34
305 303 34
306 303 34
436 303 22
437 303 22
438 303 22
439 303 22
440 303 22
441 303 22
442 303 34
443 303 34
444 303 34
445 303 34
446 303 34
447 303 34
727 303 22
728 303 22
729 303 22
730 303 22
731 303 22
732 303 22
733 303 22
734 303 22
735 303 22
736 303 22
737 303 22
738 303 22
305 304 34
306 304 46
308 304 16
310 304 16
312 304 16
436 304 22
437 304 22
438 304 22
439 304 22
440 304 22
441 304 22
442 304 34
443 304 34
444 304 34
445 304 34
446 304 34
447 304 34
727 304 22
728 304 22
729 304 23
730 304 23
731 304 23
732 304 22
733 304 22
734 304 22
735 304 22
736 304 22
737 304 22
738 304 22
752 304 10
754 304 13
756 304 10
758 304 10
760 304 10
762 304 10
306 305 34
436 305 22
437 305 22
438 305 22
439 305 22
440 305 22
441 305 22
442 305 34
443 305 34
444 305 34
445 305 34
446 305 34
447 305 34
727 305 22
728 305 22
729 305 22
730 305 22
731 305 22
732 305 22
733 305 22
734 305 22
735 305 22
736 305 22
737 305 22
738 305 22
308 306 16
310 306 16
312 306 16
436 306 22
437 306 22
438 306 22
439 306 22
440 306 22
441 306 22
442 306 34
443 306 34
444 306 34
445 306 34
446 306 34
447 306 34
727 306 22
728 306 22
729 306 23
730 306 23
731 306 23
732 306 22
733 306 22
734 306 22
735 306 22
736 306 22
737 306 22
738 306 22
752 306 10
754 306 13
756 306 10
758 306 10
760 306 10
762 306 10
310 308 16
312 308 16
752 308 10
754 308 10
756 308 10
758 308 10
760 308 10
762 308 10
312 310 16
752 310 10
754 310 10
756 310 10
758 310 10
760 310 10
762 310 10
752 312 10
754 312 10
756 312 10
758 312 10
760 312 10
762 312 10
314 313 34
315 313 34
316 313 34
317 313 34
318 313 34
319 313 22
320 313 22
321 313 22
322 313 22
323 313 22
324 313 22
412 313 22
413 313 22
414 313 22
415 313 22
416 313 22
417 313 22
418 313 34
419 313 34
420 313 34
421 313 34
422 313 34
423 313 34
424 313 22
425 313 22
426 313 22
427 313 22
428 313 22
429 313 22
315 314 34
316 314 43
317 314 34
318 314 43
319 314 22
320 314 28
321 314 23
322 314 28
323 314 23
324 314 28
326 314 16
328 314 16
330 314 16
356 314 10
358 314 15
360 314 10
412 314 22
413 314 22
414 314 23
415 314 23
416 314 23
417 314 22
418 314 34
419 314 34
420 314 34
421 314 34
422 314 34
423 314 34
424 314 22
425 314 22
426 314 22
427 314 22
428 314 22
429 314 22
316 315 34
317 315 34
318 315 34
319 315 22
320 315 22
321 315 22
322 315 22
323 315 22
324 315 22
412 315 22
413 315 22
414 315 22
415 315 22
416 315 22
417 315 22
418 315 34
419 315 34
420 315 34
421 315 34
422 315 34
423 315 34
424 315 22
425 315 22
426 315 22
427 315 22
428 315 22
429 315 22
317 316 34
318 316 43
319 316 22
320 316 28
321 316 23
322 316 28
323 316 23
324 316 28
326 316 16
328 316 16
330 316 16
356 316 10
358 316 15
360 316 10
412 316 22
413 316 22
414 316 23
415 316 23
416 316 23
417 316 22
418 316 34
419 316 34
420 316 34
421 316 34
422 316 34
423 316 34
424 316 22
425 316 22
426 316 22
427 316 22
428 316 22
429 316 22
318 317 34
319 317 22
320 317 22
321 317 22
322 317 22
323 317 22
324 317 22
412 317 22
413 317 22
414 317 22
415 317 22
416 317 22
417 317 22
418 317 34
419 317 34
420 317 34
421 317 34
422 317 34
423 317 34
424 317 22
425 317 22
426 317 22
427 317 22
428 317 22
429 317 22
319 318 22
320 318 28
321 318 23
322 318 28
323 318 23
324 318 28
326 318 16
328 318 16
330 318 16
356 318 10
358 318 15
360 318 10
412 318 22
413 318 22
414 318 23
415 318 23
416 318 23
417 318 22
418 318 34
419 318 34
420 318 34
421 318 34
422 318 34
423 318 34
424 318 22
425 318 22
426 318 22
427 318 22
428 318 22
429 318 22
320 319 22
321 319 22
322 319 22
323 319 22
324 319 22
412 319 22
413 319 22
414 319 22
415 319 22
416 319 22
417 319 22
418 319 22
419 319 22
420 319 22
421 319 22
422 319 22
423 319 22
321 320 23
322 320 28
323 320 23
324 320 28
326 320 10
328 320 10
330 320 10
356 320 10
358 320 15
360 320 10
412 320 22
413 320 22
414 320 23
415 320 23
416 320 23
417 320 22
418 320 22
419 320 22
420 320 22
421 320 22
422 320 22
423 320 22
322 321 28
323 321 28
324 321 23
357 321 10
358 321 15
359 321 10
409 321 10
410 321 10
411 321 10
412 321 22
413 321 22
414 321 28
415 321 28
416 321 28
417 321 22
418 321 22
419 321 22
420 321 22
421 321 22
422 321 22
423 321 22
323 322 28
324 322 28
326 322 10
328 322 10
330 322 10
356 322 10
357 322 10
358 322 20
359 322 10
360 322 10
409 322 10
410 322 10
411 322 10
412 322 22
413 322 22
414 322 28
415 322 28
416 322 28
417 322 22
418 322 22
419 322 22
420 322 22
421 322 22
422 322 22
423 322 22
324 323 23
357 323 10
358 323 15
359 323 10
409 323 10
410 323 10
411 323 10
412 323 22
413 323 22
414 323 28
415 323 28
416 323 28
417 323 22
418 323 22
419 323 22
420 323 22
421 323 22
422 323 22
423 323 22
326 324 10
328 324 10
330 324 10
356 324 10
358 324 15
360 324 10
412 324 22
413 324 22
414 324 23
415 324 23
416 324 23
417 324 22
418 324 22
419 324 22
420 324 22
421 324 22
422 324 22
423 324 22
328 326 16
330 326 16
356 326 10
358 326 10
360 326 10
330 328 16
356 328 10
358 328 10
360 328 10
356 330 10
358 330 10
360 330 10
340 338 16
342 338 16
344 338 16
346 338 16
348 338 16
350 338 10
352 338 10
354 338 10
368 338 10
370 338 10
372 338 10
342 340 16
344 340 16
346 340 16
348 340 16
350 340 10
352 340 10
354 340 10
368 340 10
370 340 10
372 340 10
344 342 16
346 342 16
348 342 16
350 342 10
352 342 10
354 342 10
368 342 10
370 342 10
372 342 10
347 343 10
348 343 10
379 343 10
383 343 10
384 343 10
385 343 10
389 343 10
390 343 10
346 344 16
348 344 16
350 344 10
352 344 10
354 344 10
368 344 10
370 344 10
372 344 10
348 346 16
350 346 10
352 346 10
354 346 10
368 346 10
370 346 10
372 346 10
348 347 10
379 347 10
383 347 10
384 347 10
385 347 10
389 347 10
390 347 10
350 348 10
352 348 10
354 348 10
368 348 10
370 348 10
372 348 10
379 348 10
383 348 10
384 348 10
385 348 10
389 348 10
390 348 10
352 350 10
354 350 10
368 350 10
370 350 10
372 350 10
352 351 10
353 351 10
369 351 10
370 351 10
371 351 10
393 351 10
394 351 10
395 351 10
399 351 10
400 351 10
401 351 10
353 352 10
354 352 10
368 352 10
369 352 10
370 352 20
371 352 10
372 352 10
393 352 10
394 352 10
395 352 10
399 352 10
400 352 10
401 352 10
369 353 10
370 353 10
371 353 10
393 353 10
394 353 10
395 353 10
399 353 10
400 353 10
401 353 10
368 354 10
370 354 10
372 354 10
358 356 10
360 356 10
358 357 10
359 357 10
409 357 10
410 357 10
411 357 10
414 357 10
415 357 10
416 357 10
359 358 10
360 358 10
409 358 10
410 358 10
411 358 10
414 358 15
415 358 15
416 358 15
409 359 10
410 359 10
411 359 10
414 359 10
415 359 10
416 359 10
370 368 10
372 368 10
370 369 10
371 369 10
393 369 10
394 369 10
395 369 10
399 369 10
400 369 10
401 369 10
371 370 10
372 370 10
393 370 10
394 370 10
395 370 10
399 370 10
400 370 10
401 370 10
393 371 10
394 371 10
395 371 10
399 371 10
400 371 10
401 371 10
377 373 22
378 373 22
379 373 10
383 373 10
384 373 10
448 373 16
452 373 16
453 373 16
466 373 10
470 373 10
471 373 10
472 373 10
476 373 10
477 373 10
378 377 22
379 377 10
383 377 10
384 377 10
448 377 16
452 377 16
453 377 16
466 377 10
470 377 10
471 377 10
472 377 10
476 377 10
477 377 10
379 378 10
383 378 10
384 378 10
448 378 16
452 378 16
453 378 16
466 378 10
470 378 10
471 378 10
472 378 10
476 378 10
477 378 10
383 379 16
384 379 16
385 379 10
389 379 10
390 379 10
384 383 16
385 383 10
389 383 10
390 383 10
385 384 10
389 384 10
390 384 10
389 385 10
390 385 10
390 389 10
394 393 16
395 393 16
399 393 16
400 393 16
401 393 16
492 393 10
493 393 10
494 393 10
534 393 10
535 393 10
536 393 10
395 394 16
399 394 16
400 394 16
401 394 16
492 394 10
493 394 10
494 394 10
534 394 10
535 394 10
536 394 10
399 395 16
400 395 16
401 395 16
492 395 10
493 395 10
494 395 10
534 395 10
535 395 10
536 395 10
400 399 16
401 399 16
492 399 10
493 399 10
494 399 10
534 399 10
535 399 10
536 399 10
401 400 16
492 400 10
493 400 10
494 400 10
534 400 10
535 400 10
536 400 10
492 401 10
493 401 10
494 401 10
534 401 10
535 401 10
536 401 10
410 409 16
411 409 16
414 409 16
415 409 16
416 409 16
616 409 10
617 409 10
618 409 10
633 409 10
634 409 10
635 409 10
411 410 16
414 410 16
415 410 16
416 410 16
616 410 10
617 410 10
618 410 10
633 410 10
634 410 10
635 410 10
414 411 16
415 411 16
416 411 16
616 411 10
617 411 10
618 411 10
633 411 10
634 411 10
635 411 10
413 412 34
414 412 34
415 412 34
416 412 34
417 412 34
418 412 34
419 412 34
420 412 34
421 412 34
422 412 34
423 412 34
631 412 22
632 412 21
633 412 21
634 412 22
635 412 22
636 412 22
649 412 22
650 412 22
651 412 22
652 412 22
653 412 22
654 412 22
414 413 34
415 413 34
416 413 34
417 413 34
418 413 34
419 413 34
420 413 34
421 413 34
422 413 34
423 413 34
631 413 22
632 413 21
633 413 21
634 413 22
635 413 22
636 413 22
649 413 22
650 413 22
651 413 22
652 413 22
653 413 22
654 413 22
415 414 43
416 414 43
417 414 34
418 414 34
419 414 34
420 414 34
421 414 34
422 414 34
423 414 34
616 414 10
617 414 10
618 414 10
631 414 22
632 414 21
633 414 27
634 414 28
635 414 28
636 414 22
649 414 22
650 414 22
651 414 22
652 414 22
653 414 22
654 414 22
416 415 43
417 415 34
418 415 34
419 415 34
420 415 34
421 415 34
422 415 34
423 415 34
616 415 10
617 415 10
618 415 10
631 415 22
632 415 21
633 415 27
634 415 28
635 415 28
636 415 22
649 415 22
650 415 22
651 415 22
652 415 22
653 415 22
654 415 22
417 416 34
418 416 34
419 416 34
420 416 34
421 416 34
422 416 34
423 416 34
616 416 10
617 416 10
618 416 10
631 416 22
632 416 21
633 416 27
634 416 28
635 416 28
636 416 22
649 416 22
650 416 22
651 416 22
652 416 22
653 416 22
654 416 22
418 417 34
419 417 34
420 417 34
421 417 34
422 417 34
423 417 34
631 417 22
632 417 21
633 417 21
634 417 22
635 417 22
636 417 22
649 417 22
650 417 22
651 417 22
652 417 22
653 417 22
654 417 22
419 418 52
420 418 52
421 418 52
422 418 52
423 418 52
424 418 34
425 418 34
426 418 34
427 418 34
428 418 34
429 418 34
631 418 22
632 418 21
633 418 21
634 418 22
635 418 22
636 418 22
649 418 34
650 418 34
651 418 34
652 418 34
653 418 34
654 418 34
667 418 22
668 418 22
669 418 22
670 418 22
671 418 22
672 418 22
420 419 52
421 419 52
422 419 52
423 419 52
424 419 34
425 419 34
426 419 34
427 419 34
428 419 34
429 419 34
631 419 22
632 419 21
633 419 21
634 419 22
635 419 22
636 419 22
649 419 34
650 419 34
651 419 34
652 419 34
653 419 34
654 419 34
667 419 22
668 419 22
669 419 22
670 419 22
671 419 22
672 419 22
421 420 52
422 420 52
423 420 52
424 420 34
425 420 34
426 420 34
427 420 34
428 420 34
429 420 34
631 420 22
632 420 21
633 420 21
634 420 22
635 420 22
636 420 22
649 420 34
650 420 34
651 420 34
652 420 34
653 420 34
654 420 34
667 420 22
668 420 22
669 420 22
670 420 22
671 420 22
672 420 22
422 421 52
423 421 52
424 421 34
425 421 34
426 421 34
427 421 34
428 421 34
429 421 34
631 421 22
632 421 21
633 421 21
634 421 22
635 421 22
636 421 22
649 421 34
650 421 34
651 421 34
652 421 34
653 421 34
654 421 34
667 421 22
668 421 22
669 421 22
670 421 22
671 421 22
672 421 22
423 422 52
424 422 34
425 422 34
426 422 34
427 422 34
428 422 34
429 422 34
631 422 22
632 422 21
633 422 21
634 422 22
635 422 22
636 422 22
649 422 34
650 422 34
651 422 34
652 422 34
653 422 34
654 422 34
667 422 22
668 422 22
669 422 22
670 422 22
671 422 22
672 422 22
424 423 34
425 423 34
426 423 34
427 423 34
428 423 34
429 423 34
631 423 22
632 423 21
633 423 21
634 423 22
635 423 22
636 423 22
649 423 34
650 423 34
651 423 34
652 423 34
653 423 34
654 423 34
667 423 22
668 423 22
669 423 22
670 423 22
671 423 22
672 423 22
425 424 52
426 424 52
427 424 52
428 424 52
429 424 52
430 424 34
431 424 33
432 424 33
433 424 34
434 424 34
435 424 34
649 424 22
650 424 22
651 424 22
652 424 22
653 424 22
654 424 22
667 424 34
668 424 34
669 424 34
670 424 34
671 424 34
672 424 34
685 424 22
686 424 22
687 424 22
688 424 22
689 424 22
690 424 22
426 425 52
427 425 52
428 425 52
429 425 52
430 425 34
431 425 33
432 425 33
433 425 34
434 425 34
435 425 34
649 425 22
650 425 22
651 425 22
652 425 22
653 425 22
654 425 22
667 425 34
668 425 34
669 425 34
670 425 34
671 425 34
672 425 34
685 425 22
686 425 22
687 425 22
688 425 22
689 425 22
690 425 22
427 426 52
428 426 52
429 426 52
430 426 34
431 426 33
432 426 33
433 426 34
434 426 34
435 426 34
649 426 22
650 426 22
651 426 22
652 426 22
653 426 22
654 426 22
667 426 34
668 426 34
669 426 34
670 426 34
671 426 34
672 426 34
685 426 22
686 426 22
687 426 22
688 426 22
689 426 22
690 426 22
428 427 52
429 427 52
430 427 34
431 427 33
432 427 33
433 427 34
434 427 34
435 427 34
649 427 22
650 427 22
651 427 22
652 427 22
653 427 22
654 427 22
667 427 34
668 427 34
669 427 34
670 427 34
671 427 34
672 427 34
685 427 22
686 427 22
687 427 22
688 427 22
689 427 22
690 427 22
429 428 52
430 428 34
431 428 33
432 428 33
433 428 34
434 428 34
435 428 34
649 428 22
650 428 22
651 428 22
652 428 22
653 428 22
654 428 22
667 428 34
668 428 34
669 428 34
670 428 34
671 428 34
672 428 34
685 428 22
686 428 22
687 428 22
688 428 22
689 428 22
690 428 22
430 429 34
431 429 33
432 429 33
433 429 34
434 429 34
435 429 34
649 429 22
650 429 22
651 429 22
652 429 22
653 429 22
654 429 22
667 429 34
668 429 34
669 429 34
670 429 34
671 429 34
672 429 34
685 429 22
686 429 22
687 429 22
688 429 22
689 429 22
690 429 22
431 430 51
432 430 50
433 430 52
434 430 52
435 430 52
436 430 34
437 430 33
438 430 34
439 430 34
440 430 34
441 430 34
667 430 22
668 430 22
669 430 22
670 430 22
671 430 22
672 430 22
685 430 34
686 430 34
687 430 34
688 430 34
689 430 34
690 430 34
703 430 22
704 430 21
705 430 21
706 430 22
707 430 22
708 430 22
433 431 51
434 431 51
435 431 51
436 431 33
437 431 33
438 431 33
439 431 33
440 431 33
441 431 33
667 431 21
668 431 21
669 431 21
670 431 21
671 431 21
672 431 21
685 431 33
686 431 33
687 431 33
688 431 33
689 431 33
690 431 33
703 431 21
704 431 20
705 431 20
706 431 21
707 431 21
708 431 21
433 432 50
434 432 50
435 432 50
436 432 32
438 432 32
439 432 32
440 432 32
441 432 32
667 432 21
668 432 21
669 432 21
670 432 21
671 432 21
672 432 21
685 432 32
686 432 32
687 432 32
688 432 32
689 432 32
690 432 32
703 432 20
704 432 19
705 432 19
706 432 20
707 432 20
708 432 20
434 433 52
435 433 52
436 433 34
437 433 33
438 433 34
439 433 34
440 433 34
441 433 34
667 433 22
668 433 22
669 433 22
670 433 22
671 433 22
672 433 22
685 433 34
686 433 34
687 433 34
688 433 34
689 433 34
690 433 34
703 433 22
704 433 21
705 433 21
706 433 22
707 433 22
708 433 22
435 434 52
436 434 34
437 434 33
438 434 34
439 434 34
440 434 34
441 434 34
667 434 22
668 434 22
669 434 22
670 434 22
671 434 22
672 434 22
685 434 34
686 434 34
687 434 34
688 434 34
689 434 34
690 434 34
703 434 22
704 434 21
705 434 21
706 434 22
707 434 22
708 434 22
436 435 34
437 435 33
438 435 34
439 435 34
440 435 34
441 435 34
667 435 22
668 435 22
669 435 22
670 435 22
671 435 22
672 435 22
685 435 34
686 435 34
687 435 34
688 435 34
689 435 34
690 435 34
703 435 22
704 435 21
705 435 21
706 435 22
707 435 22
708 435 22
437 436 51
438 436 52
439 436 52
440 436 52
441 436 52
442 436 34
443 436 34
444 436 34
445 436 34
446 436 34
447 436 34
685 436 22
686 436 22
687 436 22
688 436 22
689 436 22
690 436 22
703 436 34
704 436 33
705 436 33
706 436 34
707 436 34
708 436 34
721 436 22
722 436 21
723 436 21
724 436 22
725 436 22
726 436 22
438 437 51
439 437 51
440 437 51
441 437 51
442 437 34
443 437 34
444 437 34
445 437 34
446 437 34
447 437 34
685 437 21
686 437 21
687 437 21
688 437 21
689 437 21
690 437 21
703 437 33
704 437 32
705 437 32
706 437 33
707 437 33
708 437 33
721 437 22
722 437 21
723 437 21
724 437 22
725 437 22
726 437 22
439 438 52
440 438 52
441 438 52
442 438 34
443 438 34
444 438 34
445 438 34
446 438 34
447 438 34
685 438 22
686 438 22
687 438 22
688 438 22
689 438 22
690 438 22
703 438 34
704 438 33
705 438 33
706 438 34
707 438 34
708 438 34
721 438 22
722 438 21
723 438 21
724 438 22
725 438 22
726 438 22
440 439 52
441 439 52
442 439 34
443 439 34
444 439 34
445 439 34
446 439 34
447 439 34
685 439 22
686 439 22
687 439 22
688 439 22
689 439 22
690 439 22
703 439 34
704 439 33
705 439 33
706 439 34
707 439 34
708 439 34
721 439 22
722 439 21
723 439 21
724 439 22
725 439 22
726 439 22
441 440 52
442 440 34
443 440 34
444 440 34
445 440 34
446 440 34
447 440 34
685 440 22
686 440 22
687 440 22
688 440 22
689 440 22
690 440 22
703 440 34
704 440 33
705 440 33
706 440 34
707 440 34
708 440 34
721 440 22
722 440 21
723 440 21
724 440 22
725 440 22
726 440 22
442 441 34
443 441 34
444 441 34
445 441 34
446 441 34
447 441 34
685 441 22
686 441 22
687 441 22
688 441 22
689 441 22
690 441 22
703 441 34
704 441 33
705 441 33
706 441 34
707 441 34
708 441 34
721 441 22
722 441 21
723 441 21
724 441 22
725 441 22
726 441 22
443 442 52
444 442 52
445 442 52
446 442 52
447 442 52
703 442 22
704 442 21
705 442 21
706 442 22
707 442 22
708 442 22
721 442 34
722 442 33
723 442 33
724 442 34
725 442 34
726 442 34
727 442 22
728 442 22
729 442 22
730 442 22
731 442 22
732 442 22
733 442 34
734 442 34
735 442 34
736 442 34
737 442 34
738 442 34
739 442 22
740 442 22
741 442 22
742 442 22
743 442 22
744 442 22
444 443 52
445 443 52
446 443 52
447 443 52
703 443 22
704 443 21
705 443 21
706 443 22
707 443 22
708 443 22
721 443 34
722 443 33
723 443 33
724 443 34
725 443 34
726 443 34
727 443 22
728 443 22
729 443 22
730 443 22
731 443 22
732 443 22
733 443 34
734 443 34
735 443 34
736 443 34
737 443 34
738 443 34
739 443 22
740 443 22
741 443 22
742 443 22
743 443 22
744 443 22
445 444 52
446 444 52
447 444 52
703 444 22
704 444 21
705 444 21
706 444 22
707 444 22
708 444 22
721 444 34
722 444 33
723 444 33
724 444 34
725 444 34
726 444 34
727 444 22
728 444 22
729 444 22
730 444 22
731 444 22
732 444 22
733 444 34
734 444 34
735 444 34
736 444 34
737 444 34
738 444 34
739 444 22
740 444 22
741 444 22
742 444 22
743 444 22
744 444 22
446 445 52
447 445 52
703 445 22
704 445 21
705 445 21
706 445 22
707 445 22
708 445 22
721 445 34
722 445 33
723 445 33
724 445 34
725 445 34
726 445 34
727 445 22
728 445 22
729 445 22
730 445 22
731 445 22
732 445 22
733 445 34
734 445 34
735 445 34
736 445 34
737 445 34
738 445 34
739 445 22
740 445 22
741 445 22
742 445 22
743 445 22
744 445 22
447 446 52
703 446 22
704 446 21
705 446 21
706 446 22
707 446 22
708 446 22
721 446 34
722 446 33
723 446 33
724 446 34
725 446 34
726 446 34
727 446 22
728 446 22
729 446 22
730 446 22
731 446 22
732 446 22
733 446 34
734 446 34
735 446 34
736 446 34
737 446 34
738 446 34
739 446 22
740 446 22
741 446 22
742 446 22
743 446 22
744 446 22
703 447 22
704 447 21
705 447 21
706 447 22
707 447 22
708 447 22
721 447 34
722 447 33
723 447 33
724 447 34
725 447 34
726 447 34
727 447 22
728 447 22
729 447 22
730 447 22
731 447 22
732 447 22
733 447 34
734 447 34
735 447 34
736 447 34
737 447 34
738 447 34
739 447 22
740 447 22
741 447 22
742 447 22
743 447 22
744 447 22
452 448 22
453 448 22
454 448 10
458 448 10
459 448 10
466 448 10
470 448 10
471 448 10
472 448 10
476 448 10
477 448 10
453 452 22
454 452 10
458 452 10
459 452 10
466 452 10
470 452 10
471 452 10
472 452 10
476 452 10
477 452 10
454 453 10
458 453 10
459 453 10
466 453 10
470 453 10
471 453 10
472 453 10
476 453 10
477 453 10
458 454 16
459 454 16
787 454 10
791 454 10
792 454 10
811 454 10
815 454 10
816 454 10
459 458 16
787 458 10
791 458 10
792 458 10
811 458 10
815 458 10
816 458 10
787 459 10
791 459 10
792 459 10
811 459 10
815 459 10
816 459 10
464 460 10
465 460 10
526 460 10
530 460 10
531 460 10
805 460 10
809 460 10
810 460 10
817 460 10
821 460 10
822 460 10
465 464 10
526 464 10
530 464 10
531 464 10
805 464 10
809 464 10
810 464 10
817 464 10
821 464 10
822 464 10
526 465 10
530 465 10
531 465 10
805 465 10
809 465 10
810 465 10
817 465 10
821 465 10
822 465 10
470 466 16
471 466 16
472 466 16
476 466 16
477 466 16
514 466 10
518 466 10
519 466 10
520 466 10
524 466 10
525 466 10
471 470 16
472 470 16
476 470 16
477 470 16
514 470 10
518 470 10
519 470 10
520 470 10
524 470 10
525 470 10
472 471 16
476 471 16
477 471 16
514 471 10
518 471 10
519 471 10
520 471 10
524 471 10
525 471 10
476 472 16
477 472 16
514 472 10
518 472 10
519 472 10
520 472 10
524 472 10
525 472 10
477 476 16
514 476 10
518 476 10
519 476 10
520 476 10
524 476 10
525 476 10
514 477 10
518 477 10
519 477 10
520 477 10
524 477 10
525 477 10
488 484 10
489 484 10
490 484 10
494 484 10
495 484 10
496 484 10
500 484 10
501 484 10
502 484 10
506 484 10
507 484 10
489 488 10
490 488 10
494 488 10
495 488 10
496 488 10
500 488 10
501 488 10
502 488 10
506 488 10
507 488 10
490 489 10
494 489 10
495 489 10
496 489 10
500 489 10
501 489 10
502 489 10
506 489 10
507 489 10
494 490 10
495 490 10
496 490 10
500 490 10
501 490 10
502 490 10
506 490 10
507 490 10
493 492 16
494 492 16
498 492 10
499 492 10
500 492 10
534 492 16
535 492 16
536 492 16
539 492 10
540 492 10
541 492 10
494 493 16
498 493 10
499 493 10
500 493 10
534 493 16
535 493 16
536 493 16
539 493 10
540 493 10
541 493 10
495 494 10
496 494 10
498 494 10
499 494 12
500 494 20
501 494 12
502 494 10
506 494 10
507 494 12
534 494 16
535 494 16
536 494 16
539 494 10
540 494 12
541 494 10
496 495 10
500 495 10
501 495 10
502 495 10
506 495 10
507 495 10
500 496 10
501 496 10
502 496 10
506 496 10
507 496 10
499 497 10
501 497 10
503 497 10
505 497 10
507 497 10
538 497 10
540 497 10
542 497 10
544 497 10
546 497 10
548 497 10
499 498 10
500 498 10
534 498 10
535 498 10
536 498 10
539 498 10
540 498 10
541 498 10
500 499 12
501 499 12
503 499 10
505 499 10
507 499 12
534 499 10
535 499 10
536 499 10
538 499 10
539 499 10
540 499 20
541 499 10
542 499 10
544 499 10
546 499 10
548 499 10
501 500 12
502 500 10
506 500 10
507 500 12
534 500 10
535 500 10
536 500 10
539 500 10
540 500 12
541 500 10
502 501 10
503 501 10
505 501 10
506 501 10
507 501 20
538 501 10
540 501 12
542 501 10
544 501 10
546 501 10
548 501 10
506 502 10
507 502 10
505 503 16
507 503 16
509 503 10
511 503 10
513 503 10
538 503 10
540 503 10
542 503 10
544 503 16
546 503 16
548 503 16
550 503 10
552 503 10
554 503 10
507 505 16
509 505 10
511 505 10
513 505 10
538 505 10
540 505 10
542 505 10
544 505 16
546 505 16
548 505 16
550 505 10
552 505 10
554 505 10
507 506 10
509 507 10
511 507 10
513 507 10
538 507 10
540 507 12
542 507 10
544 507 16
546 507 16
548 507 16
550 507 10
552 507 10
554 507 10
511 509 16
513 509 16
515 509 10
517 509 10
519 509 10
544 509 10
546 509 10
548 509 10
550 509 16
552 509 16
554 509 16
556 509 10
558 509 10
560 509 10
513 511 16
515 511 10
517 511 10
519 511 10
544 511 10
546 511 10
548 511 10
550 511 16
552 511 16
554 511 16
556 511 10
558 511 10
560 511 10
515 513 10
517 513 10
519 513 10
544 513 10
546 513 10
548 513 10
550 513 16
552 513 16
554 513 16
556 513 10
558 513 10
560 513 10
518 514 10
519 514 10
520 514 10
524 514 10
525 514 10
517 515 16
519 515 16
521 515 10
523 515 10
525 515 10
550 515 10
552 515 10
554 515 10
556 515 16
558 515 16
560 515 16
562 515 10
564 515 10
566 515 10
519 517 16
521 517 10
523 517 10
525 517 10
550 517 10
552 517 10
554 517 10
556 517 16
558 517 16
560 517 16
562 517 10
564 517 10
566 517 10
519 518 10
520 518 10
524 518 10
525 518 10
520 519 10
521 519 10
523 519 10
524 519 10
525 519 20
550 519 10
552 519 10
554 519 10
556 519 16
558 519 16
560 519 16
562 519 10
564 519 10
566 519 10
524 520 10
525 520 10
523 521 16
525 521 16
527 521 10
529 521 10
531 521 10
556 521 10
558 521 10
560 521 10
562 521 16
564 521 16
566 521 16
568 521 10
570 521 10
572 521 10
525 523 16
527 523 10
529 523 10
531 523 10
556 523 10
558 523 10
560 523 10
562 523 16
564 523 16
566 523 16
568 523 10
570 523 10
572 523 10
525 524 10
527 525 10
529 525 10
531 525 10
556 525 10
558 525 10
560 525 10
562 525 16
564 525 16
566 525 16
568 525 10
570 525 10
572 525 10
530 526 10
531 526 10
805 526 10
809 526 10
810 526 10
817 526 10
821 526 10
822 526 10
529 527 16
531 527 16
562 527 10
564 527 10
566 527 10
568 527 16
570 527 16
572 527 16
800 527 10
802 527 10
804 527 10
806 527 10
808 527 10
810 527 10
531 529 16
562 529 10
564 529 10
566 529 10
568 529 16
570 529 16
572 529 16
800 529 10
802 529 10
804 529 10
806 529 10
808 529 10
810 529 10
531 530 10
805 530 10
809 530 10
810 530 10
817 530 10
821 530 10
822 530 10
562 531 10
564 531 10
566 531 10
568 531 16
570 531 16
572 531 16
800 531 10
802 531 11
804 531 10
805 531 10
806 531 10
808 531 12
809 531 12
810 531 20
817 531 10
821 531 11
822 531 10
535 534 16
536 534 16
539 534 10
540 534 10
541 534 10
536 535 16
539 535 10
540 535 10
541 535 10
539 536 10
540 536 10
541 536 10
540 538 10
542 538 10
544 538 10
546 538 10
548 538 10
540 539 10
541 539 10
541 540 10
542 540 10
544 540 10
546 540 10
548 540 10
544 542 10
546 542 10
548 542 10
546 544 16
548 544 16
550 544 10
552 544 10
554 544 10
548 546 16
550 546 10
552 546 10
554 546 10
550 548 10
552 548 10
554 548 10
552 550 16
554 550 16
556 550 10
558 550 10
560 550 10
554 552 16
556 552 10
558 552 10
560 552 10
556 554 10
558 554 10
560 554 10
558 556 16
560 556 16
562 556 10
564 556 10
566 556 10
560 558 16
562 558 10
564 558 10
566 558 10
562 560 10
564 560 10
566 560 10
564 562 16
566 562 16
568 562 10
570 562 10
572 562 10
566 564 16
568 564 10
570 564 10
572 564 10
568 566 10
570 566 10
572 566 10
570 568 16
572 568 16
800 568 10
802 568 10
804 568 10
806 568 10
808 568 10
810 568 10
572 570 16
800 570 10
802 570 10
804 570 10
806 570 10
808 570 10
810 570 10
800 572 10
802 572 10
804 572 10
806 572 10
808 572 10
810 572 10
617 616 10
618 616 10
633 616 10
634 616 10
635 616 10
618 617 10
633 617 10
634 617 10
635 617 10
633 618 10
634 618 10
635 618 10
620 619 22
621 619 22
622 619 22
623 619 22
624 619 22
631 619 22
632 619 21
633 619 21
634 619 22
635 619 22
636 619 22
643 619 22
644 619 22
645 619 22
646 619 22
647 619 22
648 619 22
649 619 22
650 619 22
651 619 22
652 619 22
653 619 22
654 619 22
621 620 23
622 620 28
623 620 23
624 620 28
626 620 10
628 620 15
630 620 10
631 620 22
632 620 21
633 620 22
634 620 23
635 620 23
636 620 22
638 620 10
640 620 10
642 620 10
643 620 22
644 620 28
645 620 22
646 620 28
647 620 22
648 620 28
649 620 22
650 620 22
651 620 22
652 620 22
653 620 22
654 620 22
622 621 23
623 621 23
624 621 23
628 621 10
631 621 22
632 621 21
633 621 22
634 621 23
635 621 23
636 621 22
643 621 22
644 621 23
645 621 22
646 621 23
647 621 22
648 621 23
649 621 22
650 621 22
651 621 22
652 621 22
653 621 22
654 621 22
623 622 23
624 622 28
626 622 10
628 622 15
630 622 10
631 622 22
632 622 21
633 622 22
634 622 23
635 622 23
636 622 22
638 622 10
640 622 10
642 622 10
643 622 22
644 622 28
645 622 22
646 622 28
647 622 22
648 622 28
649 622 22
650 622 22
651 622 22
652 622 22
653 622 22
654 622 22
624 623 23
628 623 10
631 623 22
632 623 21
633 623 22
634 623 23
635 623 23
636 623 22
643 623 22
644 623 23
645 623 22
646 623 23
647 623 22
648 623 23
649 623 22
650 623 22
651 623 22
652 623 22
653 623 22
654 623 22
626 624 10
628 624 15
630 624 10
631 624 22
632 624 21
633 624 22
634 624 23
635 624 23
636 624 22
638 624 10
640 624 10
642 624 10
643 624 22
644 624 28
645 624 22
646 624 28
647 624 22
648 624 28
649 624 22
650 624 22
651 624 22
652 624 22
653 624 22
654 624 22
628 626 10
630 626 10
638 626 10
640 626 10
642 626 10
644 626 10
646 626 10
648 626 10
630 628 10
633 628 10
634 628 10
635 628 10
638 628 10
640 628 10
642 628 10
644 628 15
646 628 15
648 628 15
638 630 10
640 630 10
642 630 10
644 630 10
646 630 10
648 630 10
632 631 33
633 631 33
634 631 34
635 631 34
636 631 34
643 631 22
644 631 22
645 631 22
646 631 22
647 631 22
648 631 22
649 631 34
650 631 34
651 631 34
652 631 34
653 631 34
654 631 34
634 632 33
635 632 33
636 632 33
643 632 21
644 632 21
645 632 21
646 632 21
647 632 21
648 632 21
649 632 33
650 632 33
651 632 33
652 632 33
653 632 33
654 632 33
634 633 40
635 633 40
636 633 33
643 633 21
644 633 22
645 633 21
646 633 22
647 633 21
648 633 22
649 633 33
650 633 33
651 633 33
652 633 33
653 633 33
654 633 33
635 634 41
636 634 34
643 634 22
644 634 23
645 634 22
646 634 23
647 634 22
648 634 23
649 634 34
650 634 34
651 634 34
652 634 34
653 634 34
654 634 34
636 635 34
643 635 22
644 635 23
645 635 22
646 635 23
647 635 22
648 635 23
649 635 34
650 635 34
651 635 34
652 635 34
653 635 34
654 635 34
643 636 22
644 636 22
645 636 22
646 636 22
647 636 22
648 636 22
649 636 34
650 636 34
651 636 34
652 636 34
653 636 34
654 636 34
640 638 10
642 638 10
644 638 10
646 638 10
648 638 10
642 640 10
644 640 10
646 640 10
648 640 10
644 642 10
646 642 10
648 642 10
644 643 34
645 643 34
646 643 34
647 643 34
648 643 34
649 643 34
650 643 34
651 643 34
652 643 34
653 643 34
654 643 34
661 643 22
662 643 21
663 643 21
664 643 22
665 643 22
666 643 22
667 643 22
668 643 22
669 643 22
670 643 22
671 643 22
672 643 22
645 644 34
646 644 40
647 644 34
648 644 40
649 644 34
650 644 34
651 644 34
652 644 34
653 644 34
654 644 34
661 644 22
662 644 21
663 644 21
664 644 22
665 644 22
666 644 22
667 644 22
668 644 22
669 644 22
670 644 22
671 644 22
672 644 22
646 645 34
647 645 34
648 645 34
649 645 34
650 645 34
651 645 34
652 645 34
653 645 34
654 645 34
661 645 22
662 645 21
663 645 21
664 645 22
665 645 22
666 645 22
667 645 22
668 645 22
669 645 22
670 645 22
671 645 22
672 645 22
647 646 34
648 646 40
649 646 34
650 646 34
651 646 34
652 646 34
653 646 34
654 646 34
661 646 22
662 646 21
663 646 21
664 646 22
665 646 22
666 646 22
667 646 22
668 646 22
669 646 22
670 646 22
671 646 22
672 646 22
648 647 34
649 647 34
650 647 34
651 647 34
652 647 34
653 647 34
654 647 34
661 647 22
662 647 21
663 647 21
664 647 22
665 647 22
666 647 22
667 647 22
668 647 22
669 647 22
670 647 22
671 647 22
672 647 22
649 648 34
650 648 34
651 648 34
652 648 34
653 648 34
654 648 34
661 648 22
662 648 21
663 648 21
664 648 22
665 648 22
666 648 22
667 648 22
668 648 22
669 648 22
670 648 22
671 648 22
672 648 22
650 649 52
651 649 52
652 649 52
653 649 52
654 649 52
661 649 22
662 649 21
663 649 21
664 649 22
665 649 22
666 649 22
667 649 34
668 649 34
669 649 34
670 649 34
671 649 34
672 649 34
651 650 52
652 650 52
653 650 52
654 650 52
661 650 22
662 650 21
663 650 21
664 650 22
665 650 22
666 650 22
667 650 34
668 650 34
669 650 34
670 650 34
671 650 34
672 650 34
652 651 52
653 651 52
654 651 52
661 651 22
662 651 21
663 651 21
664 651 22
665 651 22
666 651 22
667 651 34
668 651 34
669 651 34
670 651 34
671 651 34
672 651 34
653 652 52
654 652 52
661 652 22
662 652 21
663 652 21
664 652 22
665 652 22
666 652 22
667 652 34
668 652 34
669 652 34
670 652 34
671 652 34
672 652 34
654 653 52
661 653 22
662 653 21
663 653 21
664 653 22
665 653 22
666 653 22
667 653 34
668 653 34
669 653 34
670 653 34
671 653 34
672 653 34
661 654 22
662 654 21
663 654 21
664 654 22
665 654 22
666 654 22
667 654 34
668 654 34
669 654 34
670 654 34
671 654 34
672 654 34
658 656 10
660 656 10
662 656 10
664 656 10
666 656 10
674 656 10
676 656 10
678 656 10
680 656 10
682 656 10
684 656 10
660 658 10
662 658 10
664 658 10
666 658 10
674 658 10
676 658 10
678 658 10
680 658 10
682 658 10
684 658 10
662 660 10
664 660 10
666 660 10
674 660 10
676 660 10
678 660 10
680 660 10
682 660 10
684 660 10
662 661 33
663 661 33
664 661 34
665 661 34
666 661 34
667 661 34
668 661 34
669 661 34
670 661 34
671 661 34
672 661 34
679 661 22
680 661 22
681 661 22
682 661 22
683 661 22
684 661 22
685 661 22
686 661 22
687 661 22
688 661 22
689 661 22
690 661 22
664 662 39
665 662 33
666 662 39
667 662 33
668 662 33
669 662 33
670 662 33
671 662 33
672 662 33
674 662 10
676 662 10
678 662 10
679 662 21
680 662 27
681 662 21
682 662 27
683 662 21
684 662 27
685 662 21
686 662 21
687 662 21
688 662 21
689 662 21
690 662 21
664 663 33
665 663 33
666 663 33
667 663 33
668 663 33
669 663 33
670 663 33
671 663 33
672 663 33
679 663 21
680 663 21
681 663 21
682 663 21
683 663 21
684 663 21
685 663 21
686 663 21
687 663 21
688 663 21
689 663 21
690 663 21
665 664 34
666 664 40
667 664 34
668 664 34
669 664 34
670 664 34
671 664 34
672 664 34
674 664 10
676 664 10
678 664 10
679 664 22
680 664 28
681 664 22
682 664 28
683 664 22
684 664 28
685 664 22
686 664 22
687 664 22
688 664 22
689 664 22
690 664 22
666 665 34
667 665 34
668 665 34
669 665 34
670 665 34
671 665 34
672 665 34
679 665 22
680 665 22
681 665 22
682 665 22
683 665 22
684 665 22
685 665 22
686 665 22
687 665 22
688 665 22
689 665 22
690 665 22
667 666 34
668 666 34
669 666 34
670 666 34
671 666 34
672 666 34
674 666 10
676 666 10
678 666 10
679 666 22
680 666 28
681 666 22
682 666 28
683 666 22
684 666 28
685 666 22
686 666 22
687 666 22
688 666 22
689 666 22
690 666 22
668 667 52
669 667 52
670 667 52
671 667 52
672 667 52
679 667 22
680 667 22
681 667 22
682 667 22
683 667 22
684 667 22
685 667 34
686 667 34
687 667 34
688 667 34
689 667 34
690 667 34
669 668 52
670 668 52
671 668 52
672 668 52
679 668 22
680 668 22
681 668 22
682 668 22
683 668 22
684 668 22
685 668 34
686 668 34
687 668 34
688 668 34
689 668 34
690 668 34
670 669 52
671 669 52
672 669 52
679 669 22
680 669 22
681 669 22
682 669 22
683 669 22
684 669 22
685 669 34
686 669 34
687 669 34
688 669 34
689 669 34
690 669 34
671 670 52
672 670 52
679 670 22
680 670 22
681 670 22
682 670 22
683 670 22
684 670 22
685 670 34
686 670 34
687 670 34
688 670 34
689 670 34
690 670 34
672 671 52
679 671 22
680 671 22
681 671 22
682 671 22
683 671 22
684 671 22
685 671 34
686 671 34
687 671 34
688 671 34
689 671 34
690 671 34
679 672 22
680 672 22
681 672 22
682 672 22
683 672 22
684 672 22
685 672 34
686 672 34
687 672 34
688 672 34
689 672 34
690 672 34
676 674 10
678 674 10
680 674 10
682 674 10
684 674 10
678 676 10
680 676 10
682 676 10
684 676 10
680 678 10
682 678 10
684 678 10
680 679 34
681 679 34
682 679 34
683 679 34
684 679 34
685 679 34
686 679 34
687 679 34
688 679 34
689 679 34
690 679 34
697 679 22
698 679 21
699 679 22
700 679 22
701 679 22
702 679 22
703 679 22
704 679 21
705 679 20
706 679 22
707 679 22
708 679 22
681 680 34
682 680 40
683 680 34
684 680 40
685 680 34
686 680 34
687 680 34
688 680 34
689 680 34
690 680 34
697 680 22
698 680 21
699 680 22
700 680 22
701 680 22
702 680 22
703 680 22
704 680 21
705 680 20
706 680 22
707 680 22
708 680 22
682 681 34
683 681 34
684 681 34
685 681 34
686 681 34
687 681 34
688 681 34
689 681 34
690 681 34
697 681 22
698 681 21
699 681 22
700 681 22
701 681 22
702 681 22
703 681 22
704 681 21
705 681 20
706 681 22
707 681 22
708 681 22
683 682 34
684 682 40
685 682 34
686 682 34
687 682 34
688 682 34
689 682 34
690 682 34
697 682 22
698 682 21
699 682 22
700 682 22
701 682 22
702 682 22
703 682 22
704 682 21
705 682 20
706 682 22
707 682 22
708 682 22
684 683 34
685 683 34
686 683 34
687 683 34
688 683 34
689 683 34
690 683 34
697 683 22
698 683 21
699 683 22
700 683 22
701 683 22
702 683 22
703 683 22
704 683 21
705 683 20
706 683 22
707 683 22
708 683 22
685 684 34
686 684 34
687 684 34
688 684 34
689 684 34
690 684 34
697 684 22
698 684 21
699 684 22
700 684 22
701 684 22
702 684 22
703 684 22
704 684 21
705 684 20
706 684 22
707 684 22
708 684 22
686 685 52
687 685 52
688 685 52
689 685 52
690 685 52
697 685 22
698 685 21
699 685 22
700 685 22
701 685 22
702 685 22
703 685 34
704 685 33
705 685 32
706 685 34
707 685 34
708 685 34
687 686 52
688 686 52
689 686 52
690 686 52
697 686 22
698 686 21
699 686 22
700 686 22
701 686 22
702 686 22
703 686 34
704 686 33
705 686 32
706 686 34
707 686 34
708 686 34
688 687 52
689 687 52
690 687 52
697 687 22
698 687 21
699 687 22
700 687 22
701 687 22
702 687 22
703 687 34
704 687 33
705 687 32
706 687 34
707 687 34
708 687 34
689 688 52
690 688 52
697 688 22
698 688 21
699 688 22
700 688 22
701 688 22
702 688 22
703 688 34
704 688 33
705 688 32
706 688 34
707 688 34
708 688 34
690 689 52
697 689 22
698 689 21
699 689 22
700 689 22
701 689 22
702 689 22
703 689 34
704 689 33
705 689 32
706 689 34
707 689 34
708 689 34
697 690 22
698 690 21
699 690 22
700 690 22
701 690 22
702 690 22
703 690 34
704 690 33
705 690 32
706 690 34
707 690 34
708 690 34
694 692 10
696 692 10
698 692 10
700 692 10
702 692 10
710 692 10
712 692 10
714 692 10
716 692 10
718 692 10
720 692 10
696 694 10
698 694 10
700 694 10
702 694 10
710 694 10
712 694 10
714 694 10
716 694 10
718 694 10
720 694 10
698 696 10
700 696 10
702 696 10
710 696 10
712 696 10
714 696 10
716 696 10
718 696 10
720 696 10
698 697 33
699 697 34
700 697 34
701 697 34
702 697 34
703 697 34
704 697 33
705 697 32
706 697 34
707 697 34
708 697 34
715 697 22
716 697 22
717 697 22
718 697 22
719 697 22
720 697 22
721 697 22
722 697 21
723 697 21
724 697 22
725 697 22
726 697 22
699 698 33
700 698 39
701 698 33
702 698 39
703 698 33
704 698 33
706 698 33
707 698 33
708 698 33
710 698 10
712 698 10
714 698 10
715 698 21
716 698 27
717 698 21
718 698 27
719 698 21
720 698 27
721 698 21
722 698 20
723 698 20
724 698 21
725 698 21
726 698 21
700 699 34
701 699 34
702 699 34
703 699 34
704 699 33
705 699 32
706 699 34
707 699 34
708 699 34
715 699 22
716 699 22
717 699 22
718 699 22
719 699 22
720 699 22
721 699 22
722 699 21
723 699 21
724 699 22
725 699 22
726 699 22
701 700 34
702 700 40
703 700 34
704 700 33
705 700 32
706 700 34
707 700 34
708 700 34
710 700 10
712 700 10
714 700 10
715 700 22
716 700 28
717 700 22
718 700 28
719 700 22
720 700 28
721 700 22
722 700 21
723 700 21
724 700 22
725 700 22
726 700 22
702 701 34
703 701 34
704 701 33
705 701 32
706 701 34
707 701 34
708 701 34
715 701 22
716 701 22
717 701 22
718 701 22
719 701 22
720 701 22
721 701 22
722 701 21
723 701 21
724 701 22
725 701 22
726 701 22
703 702 34
704 702 33
705 702 32
706 702 34
707 702 34
708 702 34
710 702 10
712 702 10
714 702 10
715 702 22
716 702 28
717 702 22
718 702 28
719 702 22
720 702 28
721 702 22
722 702 21
723 702 21
724 702 22
725 702 22
726 702 22
704 703 51
705 703 50
706 703 52
707 703 52
708 703 52
715 703 22
716 703 22
717 703 22
718 703 22
719 703 22
720 703 22
721 703 34
722 703 33
723 703 33
724 703 34
725 703 34
726 703 34
706 704 51
707 704 51
708 704 51
715 704 21
716 704 21
717 704 21
718 704 21
719 704 21
720 704 21
721 704 33
722 704 32
723 704 32
724 704 33
725 704 33
726 704 33
706 705 50
707 705 50
708 705 50
715 705 20
716 705 20
717 705 20
718 705 20
719 705 20
720 705 20
721 705 32
722 705 31
723 705 31
724 705 32
725 705 32
726 705 32
707 706 52
708 706 52
715 706 22
716 706 22
717 706 22
718 706 22
719 706 22
720 706 22
721 706 34
722 706 33
723 706 33
724 706 34
725 706 34
726 706 34
708 707 52
715 707 22
716 707 22
717 707 22
718 707 22
719 707 22
720 707 22
721 707 34
722 707 33
723 707 33
724 707 34
725 707 34
726 707 34
715 708 22
716 708 22
717 708 22
718 708 22
719 708 22
720 708 22
721 708 34
722 708 33
723 708 33
724 708 34
725 708 34
726 708 34
712 710 16
714 710 16
716 710 16
718 710 16
720 710 16
746 710 10
748 710 10
750 710 10
764 710 10
766 710 10
768 710 10
714 712 16
716 712 16
718 712 16
720 712 16
746 712 10
748 712 10
750 712 10
764 712 10
766 712 10
768 712 10
716 714 16
718 714 16
720 714 16
746 714 10
748 714 10
750 714 10
764 714 10
766 714 10
768 714 10
716 715 34
717 715 34
718 715 34
719 715 34
720 715 34
721 715 34
722 715 33
723 715 33
724 715 34
725 715 34
726 715 34
739 715 22
740 715 22
741 715 22
742 715 22
743 715 22
744 715 22
745 715 22
746 715 22
747 715 22
748 715 22
749 715 22
750 715 22
717 716 34
718 716 43
719 716 34
720 716 43
721 716 34
722 716 33
723 716 33
724 716 34
725 716 34
726 716 34
739 716 22
740 716 22
741 716 22
742 716 22
743 716 22
744 716 22
745 716 22
746 716 28
747 716 23
748 716 28
749 716 23
750 716 28
764 716 10
766 716 12
768 716 10
718 717 34
719 717 34
720 717 34
721 717 34
722 717 33
723 717 33
724 717 34
725 717 34
726 717 34
739 717 22
740 717 22
741 717 22
742 717 22
743 717 22
744 717 22
745 717 22
746 717 22
747 717 22
748 717 22
749 717 22
750 717 22
719 718 34
720 718 43
721 718 34
722 718 33
723 718 33
724 718 34
725 718 34
726 718 34
739 718 22
740 718 22
741 718 22
742 718 22
743 718 22
744 718 22
745 718 22
746 718 28
747 718 23
748 718 28
749 718 23
750 718 28
764 718 10
766 718 12
768 718 10
720 719 34
721 719 34
722 719 33
723 719 33
724 719 34
725 719 34
726 719 34
739 719 22
740 719 22
741 719 22
742 719 22
743 719 22
744 719 22
745 719 22
746 719 22
747 719 22
748 719 22
749 719 22
750 719 22
721 720 34
722 720 33
723 720 33
724 720 34
725 720 34
726 720 34
739 720 22
740 720 22
741 720 22
742 720 22
743 720 22
744 720 22
745 720 22
746 720 28
747 720 23
748 720 28
749 720 23
750 720 28
764 720 10
766 720 12
768 720 10
722 721 51
723 721 51
724 721 52
725 721 52
726 721 52
733 721 22
734 721 22
735 721 22
736 721 22
737 721 22
738 721 22
739 721 34
740 721 34
741 721 34
742 721 34
743 721 34
744 721 34
745 721 22
746 721 22
747 721 22
748 721 22
749 721 22
750 721 22
724 722 51
725 722 51
726 722 51
733 722 21
734 722 21
735 722 21
736 722 21
737 722 21
738 722 21
739 722 33
740 722 33
741 722 33
742 722 33
743 722 33
744 722 33
745 722 21
746 722 21
747 722 21
748 722 21
749 722 21
750 722 21
724 723 51
725 723 51
726 723 51
733 723 21
734 723 21
735 723 21
736 723 21
737 723 21
738 723 21
739 723 33
740 723 33
741 723 33
742 723 33
743 723 33
744 723 33
745 723 21
746 723 21
747 723 21
748 723 21
749 723 21
750 723 21
725 724 52
726 724 52
733 724 22
734 724 22
735 724 22
736 724 22
737 724 22
738 724 22
739 724 34
740 724 34
741 724 34
742 724 34
743 724 34
744 724 34
745 724 22
746 724 22
747 724 22
748 724 22
749 724 22
750 724 22
726 725 52
733 725 22
734 725 22
735 725 22
736 725 22
737 725 22
738 725 22
739 725 34
740 725 34
741 725 34
742 725 34
743 725 34
744 725 34
745 725 22
746 725 22
747 725 22
748 725 22
749 725 22
750 725 22
733 726 22
734 726 22
735 726 22
736 726 22
737 726 22
738 726 22
739 726 34
740 726 34
741 726 34
742 726 34
743 726 34
744 726 34
745 726 22
746 726 22
747 726 22
748 726 22
749 726 22
750 726 22
728 727 22
729 727 22
730 727 22
731 727 22
732 727 22
733 727 22
734 727 22
735 727 22
736 727 22
737 727 22
738 727 22
729 728 22
730 728 22
731 728 22
732 728 22
733 728 22
734 728 22
735 728 22
736 728 22
737 728 22
738 728 22
730 729 34
731 729 34
732 729 22
733 729 22
734 729 22
735 729 28
736 729 28
737 729 28
738 729 22
753 729 10
754 729 13
755 729 10
1595 729 10
1596 729 10
1597 729 10
1612 729 16
1613 729 16
1617 729 16
1619 729 10
1620 729 10
1628 729 10
731 730 34
732 730 22
733 730 22
734 730 22
735 730 28
736 730 28
737 730 28
738 730 22
753 730 10
754 730 13
755 730 10
1595 730 10
1596 730 10
1597 730 10
1612 730 16
1613 730 16
1617 730 16
1619 730 10
1620 730 10
1628 730 10
732 731 22
733 731 22
734 731 22
735 731 28
736 731 28
737 731 28
738 731 22
753 731 10
754 731 13
755 731 10
1595 731 10
1596 731 10
1597 731 10
1612 731 16
1613 731 16
1617 731 16
1619 731 10
1620 731 10
1628 731 10
733 732 22
734 732 22
735 732 22
736 732 22
737 732 22
738 732 22
734 733 34
735 733 34
736 733 34
737 733 34
738 733 34
739 733 22
740 733 22
741 733 22
742 733 22
743 733 22
744 733 22
735 734 34
736 734 34
737 734 34
738 734 34
739 734 22
740 734 22
741 734 22
742 734 22
743 734 22
744 734 22
736 735 43
737 735 43
738 735 34
739 735 22
740 735 22
741 735 28
742 735 28
743 735 28
744 735 22
1612 735 10
1613 735 10
1617 735 10
1619 735 16
1620 735 16
1623 735 10
1624 735 10
1628 735 16
1652 735 10
737 736 43
738 736 34
739 736 22
740 736 22
741 736 28
742 736 28
743 736 28
744 736 22
1612 736 10
1613 736 10
1617 736 10
1619 736 16
1620 736 16
1623 736 10
1624 736 10
1628 736 16
1652 736 10
738 737 34
739 737 22
740 737 22
741 737 28
742 737 28
743 737 28
744 737 22
1612 737 10
1613 737 10
1617 737 10
1619 737 16
1620 737 16
1623 737 10
1624 737 10
1628 737 16
1652 737 10
739 738 22
740 738 22
741 738 22
742 738 22
743 738 22
744 738 22
740 739 34
741 739 34
742 739 34
743 739 34
744 739 34
745 739 22
746 739 22
747 739 22
748 739 22
749 739 22
750 739 22
741 740 34
742 740 34
743 740 34
744 740 34
745 740 22
746 740 22
747 740 22
748 740 22
749 740 22
750 740 22
742 741 43
743 741 43
744 741 34
745 741 22
746 741 22
747 741 28
748 741 28
749 741 28
750 741 22
1619 741 10
1620 741 10
1623 741 16
1624 741 16
1628 741 10
1644 741 10
1645 741 10
1646 741 10
1652 741 16
743 742 43
744 742 34
745 742 22
746 742 22
747 742 28
748 742 28
749 742 28
750 742 22
1619 742 10
1620 742 10
1623 742 16
1624 742 16
1628 742 10
1644 742 10
1645 742 10
1646 742 10
1652 742 16
744 743 34
745 743 22
746 743 22
747 743 28
748 743 28
749 743 28
750 743 22
1619 743 10
1620 743 10
1623 743 16
1624 743 16
1628 743 10
1644 743 10
1645 743 10
1646 743 10
1652 743 16
745 744 22
746 744 22
747 744 22
748 744 22
749 744 22
750 744 22
746 745 22
747 745 22
748 745 22
749 745 22
750 745 22
747 746 23
748 746 28
749 746 23
750 746 28
764 746 10
766 746 12
768 746 10
748 747 34
749 747 34
750 747 23
765 747 10
766 747 15
767 747 10
1623 747 13
1624 747 13
1644 747 16
1645 747 16
1646 747 16
1652 747 13
1710 747 13
1724 747 13
1725 747 13
749 748 34
750 748 28
764 748 10
765 748 10
766 748 20
767 748 10
768 748 10
1623 748 13
1624 748 13
1644 748 16
1645 748 16
1646 748 16
1652 748 13
1710 748 13
1724 748 13
1725 748 13
750 749 23
765 749 10
766 749 15
767 749 10
1623 749 13
1624 749 13
1644 749 16
1645 749 16
1646 749 16
1652 749 13
1710 749 13
1724 749 13
1725 749 13
764 750 10
766 750 12
768 750 10
754 752 10
756 752 10
758 752 10
760 752 10
762 752 10
754 753 16
755 753 16
759 753 10
760 753 10
761 753 10
1595 753 16
1596 753 16
1597 753 16
1612 753 13
1613 753 13
1617 753 13
1677 753 13
1678 753 13
1681 753 13
755 754 16
756 754 10
758 754 10
759 754 10
760 754 20
761 754 10
762 754 10
1595 754 16
1596 754 16
1597 754 16
1612 754 13
1613 754 13
1617 754 13
1677 754 13
1678 754 13
1681 754 13
759 755 10
760 755 10
761 755 10
1595 755 16
1596 755 16
1597 755 16
1612 755 13
1613 755 13
1617 755 13
1677 755 13
1678 755 13
1681 755 13
758 756 10
760 756 10
762 756 10
760 758 10
762 758 10
760 759 16
761 759 16
771 759 10
772 759 10
773 759 10
1595 759 10
1596 759 10
1597 759 10
1677 759 16
1678 759 16
1681 759 16
1812 759 10
1813 759 10
1816 759 10
761 760 16
762 760 10
771 760 10
772 760 10
773 760 10
1595 760 10
1596 760 10
1597 760 10
1677 760 16
1678 760 16
1681 760 16
1812 760 10
1813 760 10
1816 760 10
771 761 10
772 761 10
773 761 10
1595 761 10
1596 761 10
1597 761 10
1677 761 16
1678 761 16
1681 761 16
1812 761 10
1813 761 10
1816 761 10
766 764 10
768 764 10
766 765 16
767 765 16
795 765 10
796 765 10
797 765 10
1644 765 10
1645 765 10
1646 765 10
1710 765 16
1724 765 16
1725 765 16
1765 765 10
1766 765 10
1783 765 10
767 766 16
768 766 10
795 766 10
796 766 10
797 766 10
1644 766 10
1645 766 10
1646 766 10
1710 766 16
1724 766 16
1725 766 16
1765 766 10
1766 766 10
1783 766 10
795 767 10
796 767 10
797 767 10
1644 767 10
1645 767 10
1646 767 10
1710 767 16
1724 767 16
1725 767 16
1765 767 10
1766 767 10
1783 767 10
772 771 16
773 771 16
777 771 10
778 771 10
779 771 10
1677 771 10
1678 771 10
1681 771 10
1812 771 16
1813 771 16
1816 771 16
1944 771 10
1945 771 10
1962 771 10
773 772 16
777 772 10
778 772 10
779 772 10
1677 772 10
1678 772 10
1681 772 10
1812 772 16
1813 772 16
1816 772 16
1944 772 10
1945 772 10
1962 772 10
777 773 10
778 773 10
779 773 10
1677 773 10
1678 773 10
1681 773 10
1812 773 16
1813 773 16
1816 773 16
1944 773 10
1945 773 10
1962 773 10
778 776 10
780 776 10
782 776 10
784 776 10
786 776 10
778 777 16
779 777 16
783 777 10
784 777 10
785 777 10
1812 777 10
1813 777 10
1816 777 10
1944 777 16
1945 777 16
1949 777 10
1950 777 10
1951 777 10
1962 777 16
779 778 16
780 778 10
782 778 10
783 778 10
784 778 20
785 778 10
786 778 10
1812 778 10
1813 778 10
1816 778 10
1944 778 16
1945 778 16
1949 778 10
1950 778 10
1951 778 10
1962 778 16
783 779 10
784 779 10
785 779 10
1812 779 10
1813 779 10
1816 779 10
1944 779 16
1945 779 16
1949 779 10
1950 779 10
1951 779 10
1962 779 16
782 780 10
784 780 10
786 780 10
784 782 10
786 782 10
784 783 16
785 783 16
789 783 10
790 783 10
791 783 10
1939 783 13
1940 783 13
1944 783 13
1945 783 13
1949 783 16
1950 783 16
1951 783 16
1960 783 13
1962 783 13
785 784 16
786 784 10
789 784 10
790 784 10
791 784 11
1939 784 13
1940 784 13
1944 784 13
1945 784 13
1949 784 16
1950 784 16
1951 784 16
1960 784 13
1962 784 13
789 785 10
790 785 10
791 785 10
1939 785 13
1940 785 13
1944 785 13
1945 785 13
1949 785 16
1950 785 16
1951 785 16
1960 785 13
1962 785 13
791 787 10
792 787 10
811 787 10
815 787 10
816 787 10
790 789 16
791 789 16
813 789 10
814 789 10
815 789 10
1917 789 10
1918 789 10
1929 789 10
1939 789 16
1940 789 16
1949 789 10
1950 789 10
1951 789 10
1960 789 16
791 790 16
813 790 10
814 790 10
815 790 10
1917 790 10
1918 790 10
1929 790 10
1939 790 16
1940 790 16
1949 790 10
1950 790 10
1951 790 10
1960 790 16
792 791 10
811 791 10
813 791 10
814 791 10
815 791 20
816 791 10
1917 791 10
1918 791 10
1929 791 10
1939 791 16
1940 791 16
1949 791 10
1950 791 10
1951 791 10
1960 791 16
811 792 10
815 792 10
816 792 10
796 795 16
797 795 16
801 795 10
802 795 10
803 795 10
1710 795 10
1724 795 10
1725 795 10
1765 795 16
1766 795 16
1783 795 16
1840 795 10
1857 795 10
1858 795 10
797 796 16
801 796 10
802 796 10
803 796 10
1710 796 10
1724 796 10
1725 796 10
1765 796 16
1766 796 16
1783 796 16
1840 796 10
1857 796 10
1858 796 10
801 797 10
802 797 10
803 797 10
1710 797 10
1724 797 10
1725 797 10
1765 797 16
1766 797 16
1783 797 16
1840 797 10
1857 797 10
1858 797 10
802 800 10
804 800 10
806 800 10
808 800 10
810 800 10
802 801 16
803 801 16
807 801 10
808 801 10
809 801 10
1765 801 10
1766 801 10
1783 801 10
1840 801 16
1857 801 16
1858 801 16
1862 801 10
1863 801 10
1864 801 10
803 802 16
804 802 10
806 802 10
807 802 10
808 802 20
809 802 12
810 802 11
1765 802 10
1766 802 10
1783 802 10
1840 802 16
1857 802 16
1858 802 16
1862 802 10
1863 802 10
1864 802 10
807 803 10
808 803 10
809 803 10
1765 803 10
1766 803 10
1783 803 10
1840 803 16
1857 803 16
1858 803 16
1862 803 10
1863 803 10
1864 803 10
806 804 10
808 804 10
810 804 10
809 805 10
810 805 10
817 805 10
821 805 10
822 805 10
808 806 10
810 806 10
808 807 16
809 807 16
819 807 10
820 807 10
821 807 10
1840 807 13
1857 807 13
1858 807 13
1862 807 16
1863 807 16
1864 807 16
1891 807 13
1892 807 13
1896 807 13
809 808 18
810 808 12
819 808 10
820 808 10
821 808 12
1840 808 13
1857 808 13
1858 808 13
1862 808 16
1863 808 16
1864 808 16
1891 808 13
1892 808 13
1896 808 13
810 809 12
817 809 10
819 809 10
820 809 10
821 809 20
822 809 10
1840 809 13
1857 809 13
1858 809 13
1862 809 16
1863 809 16
1864 809 16
1891 809 13
1892 809 13
1896 809 13
817 810 10
821 810 11
822 810 10
815 811 10
816 811 10
814 813 16
815 813 16
819 813 10
820 813 10
821 813 10
1891 813 10
1892 813 10
1896 813 10
1917 813 16
1918 813 16
1929 813 16
1939 813 10
1940 813 10
1960 813 10
815 814 16
819 814 10
820 814 10
821 814 10
1891 814 10
1892 814 10
1896 814 10
1917 814 16
1918 814 16
1929 814 16
1939 814 10
1940 814 10
1960 814 10
816 815 10
819 815 10
820 815 10
821 815 10
1891 815 10
1892 815 10
1896 815 10
1917 815 16
1918 815 16
1929 815 16
1939 815 10
1940 815 10
1960 815 10
821 817 10
822 817 10
820 819 16
821 819 16
1862 819 10
1863 819 10
1864 819 10
1891 819 16
1892 819 16
1896 819 16
1917 819 10
1918 819 10
1929 819 10
821 820 16
1862 820 10
1863 820 10
1864 820 10
1891 820 16
1892 820 16
1896 820 16
1917 820 10
1918 820 10
1929 820 10
822 821 10
1862 821 10
1863 821 10
1864 821 10
1891 821 16
1892 821 16
1896 821 16
1917 821 10
1918 821 10
1929 821 10
852 850 28
853 850 30
854 850 29
855 850 48
856 850 24
857 850 27
858 850 24
859 850 24
863 850 34
865 850 15
866 850 15
867 850 19
868 850 34
869 850 24
870 850 27
871 850 24
872 850 24
896 850 47
897 850 48
898 850 14
899 850 28
900 850 28
901 850 27
902 850 24
903 850 24
904 850 24
905 850 24
906 850 24
910 850 36
911 850 36
913 850 17
914 850 17
915 850 24
916 850 24
917 850 24
918 850 24
919 850 24
852 851 15
853 851 15
855 851 15
863 851 11
868 851 11
896 851 14
897 851 15
898 851 14
899 851 15
900 851 15
910 851 11
911 851 11
853 852 29
854 852 27
855 852 29
863 852 17
865 852 15
866 852 15
867 852 17
868 852 17
896 852 28
897 852 29
898 852 15
899 852 29
900 852 29
901 852 27
910 852 19
911 852 19
913 852 17
914 852 17
854 853 29
855 853 31
857 853 11
863 853 19
865 853 15
866 853 15
867 853 19
868 853 19
870 853 11
896 853 30
897 853 31
898 853 15
899 853 29
900 853 29
901 853 27
910 853 21
911 853 21
913 853 17
914 853 17
855 854 29
857 854 11
863 854 17
865 854 15
866 854 15
867 854 19
868 854 17
870 854 11
896 854 29
897 854 29
899 854 27
900 854 27
901 854 27
910 854 19
911 854 19
913 854 17
914 854 17
856 855 24
857 855 27
858 855 24
859 855 24
863 855 35
865 855 15
866 855 15
867 855 19
868 855 35
869 855 24
870 855 27
871 855 24
872 855 24
896 855 48
897 855 49
898 855 15
899 855 29
900 855 29
901 855 27
902 855 24
903 855 24
904 855 24
905 855 24
906 855 24
910 855 37
911 855 37
913 855 17
914 855 17
915 855 24
916 855 24
917 855 24
918 855 24
919 855 24
857 856 24
858 856 24
859 856 24
863 856 24
868 856 24
869 856 24
870 856 24
871 856 24
872 856 24
896 856 24
897 856 24
902 856 24
903 856 24
904 856 24
905 856 24
906 856 24
910 856 24
911 856 24
915 856 24
916 856 24
917 856 24
918 856 24
919 856 24
858 857 36
859 857 36
860 857 21
861 857 20
862 857 22
863 857 27
867 857 11
868 857 27
869 857 24
870 857 39
871 857 36
872 857 36
873 857 22
874 857 22
875 857 21
896 857 27
897 857 27
902 857 24
903 857 24
904 857 36
905 857 36
906 857 36
907 857 22
908 857 22
909 857 22
910 857 27
911 857 27
915 857 24
916 857 24
917 857 36
918 857 36
919 857 36
920 857 22
921 857 22
922 857 22
859 858 36
860 858 21
861 858 20
862 858 22
863 858 24
868 858 24
869 858 24
870 858 36
871 858 36
872 858 36
873 858 22
874 858 22
875 858 21
896 858 24
897 858 24
902 858 24
903 858 24
904 858 36
905 858 36
906 858 36
907 858 22
908 858 22
909 858 22
910 858 24
911 858 24
915 858 24
916 858 24
917 858 36
918 858 36
919 858 36
920 858 22
921 858 22
922 858 22
860 859 21
861 859 20
862 859 22
863 859 24
868 859 24
869 859 24
870 859 36
871 859 36
872 859 36
873 859 22
874 859 22
875 859 21
896 859 24
897 859 24
902 859 24
903 859 24
904 859 36
905 859 36
906 859 36
907 859 22
908 859 22
909 859 22
910 859 24
911 859 24
915 859 24
916 859 24
917 859 36
918 859 36
919 859 36
920 859 22
921 859 22
922 859 22
862 860 33
870 860 21
871 860 21
872 860 21
873 860 33
874 860 32
875 860 33
881 860 21
882 860 21
883 860 21
893 860 21
894 860 21
895 860 21
904 860 21
905 860 21
906 860 21
907 860 33
908 860 33
909 860 33
917 860 21
918 860 21
919 860 21
920 860 33
921 860 33
922 860 33
925 860 21
926 860 21
927 860 21
936 860 21
937 860 21
938 860 20
862 861 32
870 861 20
871 861 20
872 861 20
873 861 32
874 861 31
881 861 20
882 861 20
883 861 20
893 861 20
894 861 20
895 861 20
904 861 20
905 861 20
906 861 20
907 861 32
908 861 32
909 861 32
917 861 20
918 861 20
919 861 20
920 861 32
921 861 32
922 861 32
925 861 20
926 861 20
927 861 20
936 861 20
937 861 20
938 861 19
870 862 22
871 862 22
872 862 22
873 862 34
874 862 33
875 862 33
881 862 22
882 862 22
883 862 22
893 862 22
894 862 22
895 862 22
904 862 22
905 862 22
906 862 22
907 862 34
908 862 34
909 862 34
917 862 22
918 862 22
919 862 22
920 862 34
921 862 34
922 862 34
925 862 22
926 862 22
927 862 22
936 862 22
937 862 22
938 862 21
864 863 10
867 863 28
868 863 58
869 863 37
870 863 42
871 863 37
872 863 37
896 863 34
897 863 35
898 863 11
899 863 17
900 863 17
901 863 15
902 863 24
903 863 24
904 863 24
905 863 24
906 863 24
910 863 58
911 863 58
912 863 10
913 863 25
914 863 25
915 863 37
916 863 37
917 863 37
918 863 37
919 863 37
1207 863 27
1208 863 24
1209 863 24
1210 863 36
1211 863 24
1212 863 35
1213 863 14
1214 863 15
1215 863 18
1216 863 17
1217 863 24
1218 863 24
1219 863 24
1220 863 24
1221 863 24
1222 863 36
1223 863 37
1224 863 14
1225 863 17
1226 863 16
1227 863 15
868 864 10
910 864 10
911 864 10
912 864 10
1210 864 10
1212 864 10
1213 864 10
1222 864 10
1223 864 10
1224 864 10
866 865 25
867 865 25
896 865 15
897 865 15
899 865 15
900 865 15
901 865 15
910 865 25
911 865 25
913 865 25
914 865 25
1210 865 14
1212 865 13
1214 865 13
1215 865 14
1216 865 15
1222 865 14
1223 865 15
1225 865 15
1226 865 14
1227 865 15
867 866 25
896 866 15
897 866 15
899 866 15
900 866 15
901 866 15
910 866 25
911 866 25
913 866 25
914 866 25
1210 866 14
1212 866 13
1214 866 13
1215 866 14
1216 866 15
1222 866 14
1223 866 15
1225 866 15
1226 866 14
1227 866 15
868 867 28
870 867 18
896 867 19
897 867 19
899 867 17
900 867 17
901 867 17
910 867 30
911 867 30
913 867 27
914 867 27
1207 867 11
1210 867 18
1212 867 17
1214 867 15
1215 867 18
1216 867 19
1222 867 18
1223 867 19
1225 867 17
1226 867 16
1227 867 17
869 868 37
870 868 42
871 868 37
872 868 37
896 868 34
897 868 35
898 868 11
899 868 17
900 868 17
901 868 15
902 868 24
903 868 24
904 868 24
905 868 24
906 868 24
910 868 58
911 868 58
912 868 10
913 868 25
914 868 25
915 868 37
916 868 37
917 868 37
918 868 37
919 868 37
1207 868 27
1208 868 24
1209 868 24
1210 868 36
1211 868 24
1212 868 35
1213 868 14
1214 868 15
1215 868 18
1216 868 17
1217 868 24
1218 868 24
1219 868 24
1220 868 24
1221 868 24
1222 868 36
1223 868 37
1224 868 14
1225 868 17
1226 868 16
1227 868 15
870 869 37
871 869 37
872 869 37
896 869 24
897 869 24
902 869 24
903 869 24
904 869 24
905 869 24
906 869 24
910 869 37
911 869 37
915 869 37
916 869 37
917 869 37
918 869 37
919 869 37
1207 869 24
1208 869 24
1209 869 24
1210 869 24
1211 869 24
1212 869 24
1217 869 24
1218 869 24
1219 869 24
1220 869 24
1221 869 24
1222 869 24
1223 869 24
871 870 55
872 870 55
873 870 34
874 870 34
875 870 33
896 870 27
897 870 27
902 870 24
903 870 24
904 870 36
905 870 36
906 870 36
907 870 22
908 870 22
909 870 22
910 870 42
911 870 42
915 870 37
916 870 37
917 870 55
918 870 55
919 870 55
920 870 34
921 870 34
922 870 34
1113 870 21
1114 870 22
1115 870 22
1116 870 22
1117 870 21
1118 870 22
1207 870 39
1208 870 36
1209 870 36
1210 870 27
1211 870 24
1212 870 26
1215 870 10
1216 870 11
1217 870 36
1218 870 36
1219 870 36
1220 870 24
1221 870 24
1222 870 27
1223 870 27
872 871 55
873 871 34
874 871 34
875 871 33
896 871 24
897 871 24
902 871 24
903 871 24
904 871 36
905 871 36
906 871 36
907 871 22
908 871 22
909 871 22
910 871 37
911 871 37
915 871 37
916 871 37
917 871 55
918 871 55
919 871 55
920 871 34
921 871 34
922 871 34
1113 871 21
1114 871 22
1115 871 22
1116 871 22
1117 871 21
1118 871 22
1207 871 36
1208 871 36
1209 871 36
1210 871 24
1211 871 24
1212 871 24
1217 871 36
1218 871 36
1219 871 36
1220 871 24
1221 871 24
1222 871 24
1223 871 24
873 872 34
874 872 34
875 872 33
896 872 24
897 872 24
902 872 24
903 872 24
904 872 36
905 872 36
906 872 36
907 872 22
908 872 22
909 872 22
910 872 37
911 872 37
915 872 37
916 872 37
917 872 55
918 872 55
919 872 55
920 872 34
921 872 34
922 872 34
1113 872 21
1114 872 22
1115 872 22
1116 872 22
1117 872 21
1118 872 22
1207 872 36
1208 872 36
1209 872 36
1210 872 24
1211 872 24
1212 872 24
1217 872 36
1218 872 36
1219 872 36
1220 872 24
1221 872 24
1222 872 24
1223 872 24
874 873 51
875 873 51
881 873 22
882 873 22
883 873 22
893 873 34
894 873 34
895 873 34
904 873 22
905 873 22
906 873 22
907 873 34
908 873 34
909 873 34
917 873 34
918 873 34
919 873 34
920 873 52
921 873 52
922 873 52
925 873 22
926 873 22
927 873 22
936 873 34
937 873 34
938 873 33
1113 873 33
1114 873 34
1115 873 34
1116 873 34
1117 873 33
1118 873 34
1172 873 22
1173 873 22
1174 873 22
1188 873 22
1189 873 22
1190 873 22
1207 873 22
1208 873 22
1209 873 22
1217 873 22
1218 873 22
1219 873 22
875 874 50
881 874 21
882 874 21
883 874 21
893 874 33
894 874 33
895 874 33
904 874 22
905 874 22
906 874 22
907 874 33
908 874 33
909 874 33
917 874 34
918 874 34
919 874 34
920 874 51
921 874 51
922 874 51
925 874 21
926 874 21
927 874 21
936 874 33
937 874 33
1113 874 32
1114 874 33
1115 874 33
1116 874 33
1117 874 32
1118 874 33
1172 874 21
1173 874 21
1174 874 21
1188 874 21
1189 874 21
1190 874 21
1207 874 22
1208 874 22
1209 874 22
1217 874 22
1218 874 22
1219 874 22
881 875 21
882 875 21
883 875 21
893 875 33
894 875 33
895 875 33
904 875 21
905 875 21
906 875 21
907 875 33
908 875 33
909 875 33
917 875 33
918 875 33
919 875 33
920 875 51
921 875 51
922 875 51
925 875 21
926 875 21
927 875 21
936 875 33
937 875 33
938 875 32
1113 875 33
1114 875 34
1115 875 34
1116 875 34
1117 875 33
1118 875 34
1172 875 22
1173 875 22
1174 875 22
1188 875 22
1189 875 22
1190 875 22
1207 875 22
1208 875 22
1209 875 22
1217 875 22
1218 875 22
1219 875 22
877 876 20
878 876 29
879 876 31
880 876 29
881 876 27
882 876 24
883 876 24
884 876 51
885 876 24
886 876 37
887 876 10
888 876 14
889 876 14
890 876 19
891 876 36
892 876 24
893 876 27
894 876 24
895 876 24
923 876 24
924 876 24
925 876 24
926 876 24
927 876 24
928 876 51
929 876 51
930 876 20
931 876 29
932 876 29
933 876 27
934 876 24
935 876 24
936 876 24
937 876 24
938 876 24
939 876 37
940 876 38
941 876 10
942 876 15
943 876 17
878 877 16
879 877 16
884 877 20
886 877 14
887 877 10
891 877 14
928 877 20
929 877 20
930 877 20
931 877 16
932 877 16
939 877 14
940 877 14
941 877 10
879 878 29
880 878 27
884 878 29
886 878 17
888 878 14
889 878 14
890 878 17
891 878 16
928 878 29
929 878 29
930 878 16
931 878 29
932 878 29
933 878 27
939 878 17
940 878 18
942 878 15
943 878 17
880 879 29
881 879 11
884 879 31
886 879 19
888 879 14
889 879 14
890 879 19
891 879 18
893 879 11
928 879 31
929 879 31
930 879 16
931 879 29
932 879 29
933 879 27
939 879 19
940 879 20
942 879 15
943 879 17
881 880 11
884 880 29
886 880 17
888 880 14
889 880 14
890 880 19
891 880 16
893 880 11
928 880 29
929 880 29
931 880 27
932 880 27
933 880 27
939 880 17
940 880 18
942 880 15
943 880 17
882 881 36
883 881 36
884 881 27
885 881 24
886 881 27
890 881 11
891 881 27
892 881 24
893 881 39
894 881 36
895 881 36
907 881 22
908 881 22
909 881 22
920 881 22
921 881 22
922 881 22
923 881 24
924 881 24
925 881 36
926 881 36
927 881 36
928 881 27
929 881 27
934 881 24
935 881 24
936 881 36
937 881 36
938 881 35
939 881 27
940 881 27
883 882 36
884 882 24
885 882 24
886 882 24
891 882 24
892 882 24
893 882 36
894 882 36
895 882 36
907 882 22
908 882 22
909 882 22
920 882 22
921 882 22
922 882 22
923 882 24
924 882 24
925 882 36
926 882 36
927 882 36
928 882 24
929 882 24
934 882 24
935 882 24
936 882 36
937 882 36
938 882 35
939 882 24
940 882 24
884 883 24
885 883 24
886 883 24
891 883 24
892 883 24
893 883 36
894 883 36
895 883 36
907 883 22
908 883 22
909 883 22
920 883 22
921 883 22
922 883 22
923 883 24
924 883 24
925 883 36
926 883 36
927 883 36
928 883 24
929 883 24
934 883 24
935 883 24
936 883 36
937 883 36
938 883 35
939 883 24
940 883 24
885 884 24
886 884 37
887 884 10
888 884 14
889 884 14
890 884 19
891 884 36
892 884 24
893 884 27
894 884 24
895 884 24
923 884 24
924 884 24
925 884 24
926 884 24
927 884 24
928 884 51
929 884 51
930 884 20
931 884 29
932 884 29
933 884 27
934 884 24
935 884 24
936 884 24
937 884 24
938 884 24
939 884 37
940 884 38
941 884 10
942 884 15
943 884 17
886 885 24
891 885 24
892 885 24
893 885 24
894 885 24
895 885 24
923 885 24
924 885 24
925 885 24
926 885 24
927 885 24
928 885 24
929 885 24
934 885 24
935 885 24
936 885 24
937 885 24
938 885 24
939 885 24
940 885 24
887 886 16
890 886 28
891 886 57
892 886 37
893 886 41
894 886 37
895 886 37
923 886 24
924 886 24
925 886 24
926 886 24
927 886 24
928 886 37
929 886 37
930 886 14
931 886 17
932 886 17
933 886 15
934 886 37
935 886 37
936 886 37
937 886 37
938 886 37
939 886 57
940 886 58
941 886 16
942 886 23
943 886 25
1170 886 24
1171 886 24
1172 886 24
1173 886 24
1174 886 24
1175 886 34
1176 886 35
1177 886 14
1178 886 15
1179 886 15
1180 886 15
1181 886 35
1182 886 24
1183 886 35
1184 886 14
1185 886 14
1186 886 16
1187 886 17
1188 886 27
1189 886 24
1190 886 24
891 887 16
928 887 10
929 887 10
930 887 10
939 887 16
940 887 16
941 887 16
1175 887 10
1176 887 10
1177 887 10
1181 887 10
1183 887 10
1184 887 10
889 888 23
890 888 24
928 888 14
929 888 14
931 888 14
932 888 14
933 888 14
939 888 22
942 888 23
943 888 24
1175 888 11
1176 888 12
1178 888 12
1179 888 12
1180 888 14
1181 888 12
1183 888 12
1185 888 11
1186 888 12
1187 888 14
890 889 24
928 889 14
929 889 14
931 889 14
932 889 14
933 889 14
940 889 23
942 889 24
943 889 24
1175 889 11
1176 889 12
1178 889 12
1179 889 12
1180 889 14
1181 889 12
1183 889 12
1185 889 11
1186 889 12
1187 889 14
891 890 27
893 890 17
928 890 19
929 890 19
931 890 17
932 890 17
933 890 17
939 890 28
940 890 29
942 890 25
943 890 27
1175 890 16
1176 890 17
1178 890 15
1179 890 15
1180 890 17
1181 890 17
1183 890 17
1185 890 14
1186 890 16
1187 890 19
1188 890 11
892 891 37
893 891 41
894 891 37
895 891 37
923 891 24
924 891 24
925 891 24
926 891 24
927 891 24
928 891 36
929 891 36
930 891 14
931 891 16
932 891 16
933 891 14
934 891 37
935 891 37
936 891 37
937 891 37
938 891 37
939 891 57
940 891 57
941 891 16
943 891 24
1170 891 24
1171 891 24
1172 891 24
1173 891 24
1174 891 24
1175 891 33
1176 891 34
1177 891 14
1178 891 14
1179 891 14
1180 891 14
1181 891 34
1182 891 24
1183 891 34
1184 891 14
1185 891 13
1186 891 15
1187 891 16
1188 891 27
1189 891 24
1190 891 24
893 892 37
894 892 37
895 892 37
923 892 24
924 892 24
925 892 24
926 892 24
927 892 24
928 892 24
929 892 24
934 892 37
935 892 37
936 892 37
937 892 37
938 892 37
939 892 37
940 892 37
1170 892 24
1171 892 24
1172 892 24
1173 892 24
1174 892 24
1175 892 24
1176 892 24
1181 892 24
1182 892 24
1183 892 24
1188 892 24
1189 892 24
1190 892 24
894 893 55
895 893 55
907 893 22
908 893 22
909 893 22
920 893 34
921 893 34
922 893 34
923 893 24
924 893 24
925 893 36
926 893 36
927 893 36
928 893 27
929 893 27
934 893 37
935 893 37
936 893 55
937 893 55
938 893 54
939 893 41
940 893 41
1113 893 21
1114 893 22
1115 893 22
1116 893 22
1117 893 21
1118 893 22
1170 893 24
1171 893 24
1172 893 36
1173 893 36
1174 893 36
1175 893 26
1176 893 26
1181 893 26
1182 893 24
1183 893 26
1187 893 10
1188 893 38
1189 893 36
1190 893 36
895 894 55
907 894 22
908 894 22
909 894 22
920 894 34
921 894 34
922 894 34
923 894 24
924 894 24
925 894 36
926 894 36
927 894 36
928 894 24
929 894 24
934 894 37
935 894 37
936 894 55
937 894 55
938 894 54
939 894 37
940 894 37
1113 894 21
1114 894 22
1115 894 22
1116 894 22
1117 894 21
1118 894 22
1170 894 24
1171 894 24
1172 894 36
1173 894 36
1174 894 36
1175 894 24
1176 894 24
1181 894 24
1182 894 24
1183 894 24
1188 894 36
1189 894 36
1190 894 36
907 895 22
908 895 22
909 895 22
920 895 34
921 895 34
922 895 34
923 895 24
924 895 24
925 895 36
926 895 36
927 895 36
928 895 24
929 895 24
934 895 37
935 895 37
936 895 55
937 895 55
938 895 54
939 895 37
940 895 37
1113 895 21
1114 895 22
1115 895 22
1116 895 22
1117 895 21
1118 895 22
1170 895 24
1171 895 24
1172 895 36
1173 895 36
1174 895 36
1175 895 24
1176 895 24
1181 895 24
1182 895 24
1183 895 24
1188 895 36
1189 895 36
1190 895 36
897 896 74
899 896 43
900 896 43
901 896 41
902 896 38
903 896 38
904 896 38
905 896 38
906 896 38
910 896 55
911 896 55
913 896 24
914 896 25
915 896 38
916 896 38
917 896 38
918 896 38
919 896 38
944 896 49
945 896 49
946 896 16
947 896 27
948 896 27
949 896 26
950 896 26
951 896 26
952 896 26
953 896 26
954 896 26
1079 896 26
1080 896 26
1081 896 26
1082 896 26
1083 896 26
1084 896 36
1085 896 36
1087 896 13
1088 896 16
898 897 24
899 897 44
900 897 44
901 897 41
902 897 38
903 897 38
904 897 38
905 897 38
906 897 38
910 897 56
911 897 56
913 897 24
914 897 25
915 897 38
916 897 38
917 897 38
918 897 38
919 897 38
944 897 50
945 897 50
946 897 17
947 897 28
948 897 28
949 897 26
950 897 26
951 897 26
952 897 26
953 897 26
954 897 26
1079 897 26
1080 897 26
1081 897 26
1082 897 26
1083 897 26
1084 897 37
1085 897 37
1087 897 13
1088 897 16
899 898 24
900 898 24
910 898 18
911 898 18
944 898 15
945 898 15
946 898 15
947 898 15
948 898 15
1084 898 11
1085 898 11
900 899 44
901 899 41
910 899 28
911 899 28
913 899 24
914 899 25
944 899 28
945 899 28
946 899 16
947 899 28
948 899 28
949 899 26
1084 899 17
1085 899 17
1087 899 13
1088 899 16
901 900 41
910 900 28
911 900 28
913 900 24
914 900 25
944 900 28
945 900 28
946 900 16
947 900 28
948 900 28
949 900 26
1084 900 17
1085 900 17
1087 900 13
1088 900 16
910 901 25
911 901 25
913 901 24
914 901 25
944 901 26
945 901 26
947 901 26
948 901 26
949 901 26
1084 901 15
1085 901 15
1087 901 13
1088 901 16
903 902 38
904 902 38
905 902 38
906 902 38
910 902 38
911 902 38
915 902 38
916 902 38
917 902 38
918 902 38
919 902 38
944 902 26
945 902 26
950 902 26
951 902 26
952 902 26
953 902 26
954 902 26
1079 902 26
1080 902 26
1081 902 26
1082 902 26
1083 902 26
1084 902 26
1085 902 26
904 903 38
905 903 38
906 903 38
910 903 38
911 903 38
915 903 38
916 903 38
917 903 38
918 903 38
919 903 38
944 903 26
945 903 26
950 903 26
951 903 26
952 903 26
953 903 26
954 903 26
1079 903 26
1080 903 26
1081 903 26
1082 903 26
1083 903 26
1084 903 26
1085 903 26
905 904 56
906 904 56
907 904 34
908 904 34
909 904 34
910 904 38
911 904 38
915 904 38
916 904 38
917 904 56
918 904 56
919 904 56
920 904 34
921 904 34
922 904 34
944 904 26
945 904 26
950 904 26
951 904 26
952 904 38
953 904 38
954 904 38
955 904 22
956 904 22
957 904 22
1042 904 22
1043 904 22
1044 904 22
1079 904 38
1080 904 38
1081 904 38
1082 904 26
1083 904 26
1084 904 26
1085 904 26
906 905 56
907 905 34
908 905 34
909 905 34
910 905 38
911 905 38
915 905 38
916 905 38
917 905 56
918 905 56
919 905 56
920 905 34
921 905 34
922 905 34
944 905 26
945 905 26
950 905 26
951 905 26
952 905 38
953 905 38
954 905 38
955 905 22
956 905 22
957 905 22
1042 905 22
1043 905 22
1044 905 22
1079 905 38
1080 905 38
1081 905 38
1082 905 26
1083 905 26
1084 905 26
1085 905 26
907 906 34
908 906 34
909 906 34
910 906 38
911 906 38
915 906 38
916 906 38
917 906 56
918 906 56
919 906 56
920 906 34
921 906 34
922 906 34
944 906 26
945 906 26
950 906 26
951 906 26
952 906 38
953 906 38
954 906 38
955 906 22
956 906 22
957 906 22
1042 906 22
1043 906 22
1044 906 22
1079 906 38
1080 906 38
1081 906 38
1082 906 26
1083 906 26
1084 906 26
1085 906 26
908 907 52
909 907 52
917 907 34
918 907 34
919 907 34
920 907 52
921 907 52
922 907 52
925 907 34
926 907 34
927 907 34
936 907 34
937 907 34
938 907 33
952 907 22
953 907 22
954 907 22
955 907 34
956 907 34
957 907 34
1010 907 22
1011 907 22
1012 907 22
1039 907 22
1040 907 22
1041 907 22
1042 907 34
1043 907 34
1044 907 34
1079 907 22
1080 907 22
1081 907 22
909 908 52
917 908 34
918 908 34
919 908 34
920 908 52
921 908 52
922 908 52
925 908 34
926 908 34
927 908 34
936 908 34
937 908 34
938 908 33
952 908 22
953 908 22
954 908 22
955 908 34
956 908 34
957 908 34
1010 908 22
1011 908 22
1012 908 22
1039 908 22
1040 908 22
1041 908 22
1042 908 34
1043 908 34
1044 908 34
1079 908 22
1080 908 22
1081 908 22
917 909 34
918 909 34
919 909 34
920 909 52
921 909 52
922 909 52
925 909 34
926 909 34
927 909 34
936 909 34
937 909 34
938 909 33
952 909 22
953 909 22
954 909 22
955 909 34
956 909 34
957 909 34
1010 909 22
1011 909 22
1012 909 22
1039 909 22
1040 909 22
1041 909 22
1042 909 34
1043 909 34
1044 909 34
1079 909 22
1080 909 22
1081 909 22
911 910 90
912 910 10
913 910 38
914 910 40
915 910 58
916 910 58
917 910 58
918 910 58
919 910 58
944 910 37
945 910 37
946 910 12
947 910 17
948 910 17
949 910 15
950 910 26
951 910 26
952 910 26
953 910 26
954 910 26
1079 910 40
1080 910 40
1081 910 40
1082 910 40
1083 910 40
1084 910 58
1085 910 58
1088 910 25
1207 910 27
1208 910 24
1209 910 24
1210 910 38
1211 910 24
1212 910 37
1213 910 14
1214 910 17
1215 910 20
1216 910 19
1217 910 38
1218 910 38
1219 910 38
1220 910 38
1221 910 37
1222 910 55
1223 910 56
1224 910 21
1225 910 26
1226 910 25
1227 910 23
1228 910 26
1229 910 25
1230 910 26
1231 910 26
1232 910 26
1233 910 34
1234 910 34
1235 910 10
1236 910 14
1237 910 14
1238 910 15
912 911 10
913 911 38
914 911 40
915 911 58
916 911 58
917 911 58
918 911 58
919 911 58
944 911 37
945 911 37
946 911 12
947 911 17
948 911 17
949 911 15
950 911 26
951 911 26
952 911 26
953 911 26
954 911 26
1079 911 40
1080 911 40
1081 911 40
1082 911 40
1083 911 40
1084 911 58
1085 911 58
1088 911 25
1207 911 27
1208 911 24
1209 911 24
1210 911 38
1211 911 24
1212 911 37
1213 911 14
1214 911 17
1215 911 20
1216 911 19
1217 911 38
1218 911 38
1219 911 38
1220 911 38
1221 911 37
1222 911 55
1223 911 56
1224 911 21
1225 911 26
1226 911 25
1227 911 23
1228 911 26
1229 911 25
1230 911 26
1231 911 26
1232 911 26
1233 911 34
1234 911 34
1235 911 10
1236 911 14
1237 911 14
1238 911 15
1210 912 10
1212 912 10
1213 912 10
1222 912 10
1223 912 10
1224 912 10
914 913 38
944 913 14
945 913 14
947 913 14
948 913 14
949 913 14
1087 913 21
1088 913 24
1210 913 16
1212 913 15
1214 913 15
1215 913 16
1216 913 17
1222 913 21
1223 913 22
1225 913 22
1226 913 21
1227 913 22
1233 913 12
1234 913 12
1236 913 11
1237 913 11
1238 913 14
944 914 15
945 914 15
947 914 15
948 914 15
949 914 15
1084 914 24
1085 914 24
1088 914 25
1210 914 16
1212 914 15
1214 914 15
1215 914 16
1216 914 17
1222 914 22
1223 914 23
1225 914 23
1226 914 22
1227 914 23
1233 914 13
1234 914 13
1236 914 12
1237 914 12
1238 914 15
916 915 58
917 915 58
918 915 58
919 915 58
944 915 26
945 915 26
950 915 26
951 915 26
952 915 26
953 915 26
954 915 26
1079 915 40
1080 915 40
1081 915 40
1082 915 40
1083 915 40
1084 915 40
1085 915 40
1207 915 24
1208 915 24
1209 915 24
1210 915 24
1211 915 24
1212 915 24
1217 915 38
1218 915 38
1219 915 38
1220 915 38
1221 915 37
1222 915 38
1223 915 38
1228 915 26
1229 915 25
1230 915 26
1231 915 26
1232 915 26
1233 915 26
1234 915 26
917 916 58
918 916 58
919 916 58
944 916 26
945 916 26
950 916 26
951 916 26
952 916 26
953 916 26
954 916 26
1079 916 40
1080 916 40
1081 916 40
1082 916 40
1083 916 40
1084 916 40
1085 916 40
1207 916 24
1208 916 24
1209 916 24
1210 916 24
1211 916 24
1212 916 24
1217 916 38
1218 916 38
1219 916 38
1220 916 38
1221 916 37
1222 916 38
1223 916 38
1228 916 26
1229 916 25
1230 916 26
1231 916 26
1232 916 26
1233 916 26
1234 916 26
918 917 85
919 917 85
920 917 52
921 917 52
922 917 52
944 917 26
945 917 26
950 917 26
951 917 26
952 917 38
953 917 38
954 917 38
955 917 22
956 917 22
957 917 22
1042 917 34
1043 917 34
1044 917 34
1079 917 58
1080 917 58
1081 917 58
1082 917 40
1083 917 40
1084 917 40
1085 917 40
1113 917 21
1114 917 22
1115 917 22
1116 917 34
1117 917 33
1118 917 34
1119 917 22
1120 917 22
1121 917 22
1207 917 36
1208 917 36
1209 917 36
1210 917 24
1211 917 24
1212 917 24
1217 917 56
1218 917 56
1219 917 56
1220 917 38
1221 917 37
1222 917 38
1223 917 38
1228 917 38
1229 917 37
1230 917 38
1231 917 26
1232 917 26
1233 917 26
1234 917 26
919 918 85
920 918 52
921 918 52
922 918 52
944 918 26
945 918 26
950 918 26
951 918 26
952 918 38
953 918 38
954 918 38
955 918 22
956 918 22
957 918 22
1042 918 34
1043 918 34
1044 918 34
1079 918 58
1080 918 58
1081 918 58
1082 918 40
1083 918 40
1084 918 40
1085 918 40
1113 918 21
1114 918 22
1115 918 22
1116 918 34
1117 918 33
1118 918 34
1119 918 22
1120 918 22
1121 918 22
1207 918 36
1208 918 36
1209 918 36
1210 918 24
1211 918 24
1212 918 24
1217 918 56
1218 918 56
1219 918 56
1220 918 38
1221 918 37
1222 918 38
1223 918 38
1228 918 38
1229 918 37
1230 918 38
1231 918 26
1232 918 26
1233 918 26
1234 918 26
920 919 52
921 919 52
922 919 52
944 919 26
945 919 26
950 919 26
951 919 26
952 919 38
953 919 38
954 919 38
955 919 22
956 919 22
957 919 22
1042 919 34
1043 919 34
1044 919 34
1079 919 58
1080 919 58
1081 919 58
1082 919 40
1083 919 40
1084 919 40
1085 919 40
1113 919 21
1114 919 22
1115 919 22
1116 919 34
1117 919 33
1118 919 34
1119 919 22
1120 919 22
1121 919 22
1207 919 36
1208 919 36
1209 919 36
1210 919 24
1211 919 24
1212 919 24
1217 919 56
1218 919 56
1219 919 56
1220 919 38
1221 919 37
1222 919 38
1223 919 38
1228 919 38
1229 919 37
1230 919 38
1231 919 26
1232 919 26
1233 919 26
1234 919 26
921 920 79
922 920 79
925 920 34
926 920 34
927 920 34
936 920 52
937 920 52
938 920 51
952 920 22
953 920 22
954 920 22
955 920 34
956 920 34
957 920 34
1010 920 22
1011 920 22
1012 920 22
1039 920 34
1040 920 34
1041 920 34
1042 920 52
1043 920 52
1044 920 52
1079 920 34
1080 920 34
1081 920 34
1113 920 33
1114 920 34
1115 920 34
1116 920 52
1117 920 51
1118 920 52
1119 920 34
1120 920 34
1121 920 34
1161 920 22
1162 920 22
1163 920 22
1172 920 34
1173 920 34
1174 920 34
1188 920 22
1189 920 22
1190 920 22
1207 920 22
1208 920 22
1209 920 22
1217 920 34
1218 920 34
1219 920 34
1228 920 22
1229 920 22
1230 920 22
922 921 79
925 921 34
926 921 34
927 921 34
936 921 52
937 921 52
938 921 51
952 921 22
953 921 22
954 921 22
955 921 34
956 921 34
957 921 34
1010 921 22
1011 921 22
1012 921 22
1039 921 34
1040 921 34
1041 921 34
1042 921 52
1043 921 52
1044 921 52
1079 921 34
1080 921 34
1081 921 34
1113 921 33
1114 921 34
1115 921 34
1116 921 52
1117 921 51
1118 921 52
1119 921 34
1120 921 34
1121 921 34
1161 921 22
1162 921 22
1163 921 22
1172 921 34
1173 921 34
1174 921 34
1188 921 22
1189 921 22
1190 921 22
1207 921 22
1208 921 22
1209 921 22
1217 921 34
1218 921 34
1219 921 34
1228 921 22
1229 921 22
1230 921 22
925 922 34
926 922 34
927 922 34
936 922 52
937 922 52
938 922 51
952 922 22
953 922 22
954 922 22
955 922 34
956 922 34
957 922 34
1010 922 22
1011 922 22
1012 922 22
1039 922 34
1040 922 34
1041 922 34
1042 922 52
1043 922 52
1044 922 52
1079 922 34
1080 922 34
1081 922 34
1113 922 33
1114 922 34
1115 922 34
1116 922 52
1117 922 51
1118 922 52
1119 922 34
1120 922 34
1121 922 34
1161 922 22
1162 922 22
1163 922 22
1172 922 34
1173 922 34
1174 922 34
1188 922 22
1189 922 22
1190 922 22
1207 922 22
1208 922 22
1209 922 22
1217 922 34
1218 922 34
1219 922 34
1228 922 22
1229 922 22
1230 922 22
924 923 38
925 923 38
926 923 38
927 923 38
928 923 38
929 923 38
934 923 38
935 923 38
936 923 38
937 923 38
938 923 38
939 923 38
940 923 38
1006 923 26
1007 923 26
1010 923 26
1011 923 26
1012 923 26
1026 923 26
1027 923 26
1032 923 26
1033 923 26
1034 923 26
1035 923 26
1039 923 26
1040 923 26
1041 923 26
925 924 38
926 924 38
927 924 38
928 924 38
929 924 38
934 924 38
935 924 38
936 924 38
937 924 38
938 924 38
939 924 38
940 924 38
1006 924 26
1007 924 26
1010 924 26
1011 924 26
1012 924 26
1026 924 26
1027 924 26
1032 924 26
1033 924 26
1034 924 26
1035 924 26
1039 924 26
1040 924 26
1041 924 26
926 925 56
927 925 56
928 925 38
929 925 38
934 925 38
935 925 38
936 925 56
937 925 56
938 925 55
939 925 38
940 925 38
955 925 22
956 925 22
957 925 22
1006 925 26
1007 925 26
1010 925 38
1011 925 38
1012 925 38
1026 925 26
1027 925 26
1032 925 26
1033 925 26
1034 925 26
1035 925 26
1039 925 38
1040 925 38
1041 925 38
1042 925 22
1043 925 22
1044 925 22
927 926 56
928 926 38
929 926 38
934 926 38
935 926 38
936 926 56
937 926 56
938 926 55
939 926 38
940 926 38
955 926 22
956 926 22
957 926 22
1006 926 26
1007 926 26
1010 926 38
1011 926 38
1012 926 38
1026 926 26
1027 926 26
1032 926 26
1033 926 26
1034 926 26
1035 926 26
1039 926 38
1040 926 38
1041 926 38
1042 926 22
1043 926 22
1044 926 22
928 927 38
929 927 38
934 927 38
935 927 38
936 927 56
937 927 56
938 927 55
939 927 38
940 927 38
955 927 22
956 927 22
957 927 22
1006 927 26
1007 927 26
1010 927 38
1011 927 38
1012 927 38
1026 927 26
1027 927 26
1032 927 26
1033 927 26
1034 927 26
1035 927 26
1039 927 38
1040 927 38
1041 927 38
1042 927 22
1043 927 22
1044 927 22
929 928 76
930 928 28
931 928 43
932 928 43
933 928 41
934 928 38
935 928 38
936 928 38
937 928 38
938 928 38
939 928 55
940 928 56
941 928 10
942 928 21
943 928 26
1006 928 26
1007 928 26
1010 928 26
1011 928 26
1012 928 26
1026 928 49
1027 928 46
1029 928 27
1030 928 27
1031 928 23
1032 928 26
1033 928 26
1034 928 36
1035 928 34
1037 928 14
1038 928 13
1039 928 26
1040 928 26
1041 928 26
930 929 28
931 929 43
932 929 43
933 929 41
934 929 38
935 929 38
936 929 38
937 929 38
938 929 38
939 929 55
940 929 56
941 929 10
942 929 21
943 929 26
1006 929 26
1007 929 26
1010 929 26
1011 929 26
1012 929 26
1026 929 49
1027 929 46
1029 929 27
1030 929 27
1031 929 23
1032 929 26
1033 929 26
1034 929 36
1035 929 34
1037 929 14
1038 929 13
1039 929 26
1040 929 26
1041 929 26
931 930 24
932 930 24
939 930 20
940 930 20
941 930 10
1026 930 16
1027 930 16
1029 930 15
1030 930 15
1034 930 11
1035 930 11
932 931 43
933 931 41
939 931 25
940 931 26
942 931 21
943 931 26
1026 931 27
1027 931 24
1029 931 27
1030 931 27
1031 931 23
1034 931 16
1035 931 14
1037 931 14
1038 931 13
933 932 41
939 932 25
940 932 26
942 932 21
943 932 26
1026 932 27
1027 932 24
1029 932 27
1030 932 27
1031 932 23
1034 932 16
1035 932 14
1037 932 14
1038 932 13
939 933 23
940 933 24
942 933 21
943 933 26
1026 933 26
1027 933 23
1029 933 26
1030 933 26
1031 933 23
1034 933 15
1035 933 13
1037 933 14
1038 933 13
935 934 58
936 934 58
937 934 58
938 934 58
939 934 58
940 934 58
1006 934 26
1007 934 26
1010 934 26
1011 934 26
1012 934 26
1026 934 26
1027 934 26
1032 934 40
1033 934 40
1034 934 40
1035 934 40
1039 934 40
1040 934 40
1041 934 40
1159 934 26
1160 934 26
1161 934 26
1162 934 26
1163 934 26
1164 934 26
1165 934 26
1170 934 38
1171 934 38
1172 934 38
1173 934 38
1174 934 38
1175 934 38
1176 934 38
1181 934 24
1182 934 24
1183 934 24
1188 934 24
1189 934 24
1190 934 24
936 935 58
937 935 58
938 935 58
939 935 58
940 935 58
1006 935 26
1007 935 26
1010 935 26
1011 935 26
1012 935 26
1026 935 26
1027 935 26
1032 935 40
1033 935 40
1034 935 40
1035 935 40
1039 935 40
1040 935 40
1041 935 40
1159 935 26
1160 935 26
1161 935 26
1162 935 26
1163 935 26
1164 935 26
1165 935 26
1170 935 38
1171 935 38
1172 935 38
1173 935 38
1174 935 38
1175 935 38
1176 935 38
1181 935 24
1182 935 24
1183 935 24
1188 935 24
1189 935 24
1190 935 24
937 936 85
938 936 84
939 936 58
940 936 58
955 936 22
956 936 22
957 936 22
1006 936 26
1007 936 26
1010 936 38
1011 936 38
1012 936 38
1026 936 26
1027 936 26
1032 936 40
1033 936 40
1034 936 40
1035 936 40
1039 936 58
1040 936 58
1041 936 58
1042 936 34
1043 936 34
1044 936 34
1113 936 21
1114 936 22
1115 936 22
1116 936 34
1117 936 33
1118 936 34
1119 936 22
1120 936 22
1121 936 22
1159 936 26
1160 936 26
1161 936 38
1162 936 38
1163 936 38
1164 936 26
1165 936 26
1170 936 38
1171 936 38
1172 936 56
1173 936 56
1174 936 56
1175 936 38
1176 936 38
1181 936 24
1182 936 24
1183 936 24
1188 936 36
1189 936 36
1190 936 36
938 937 84
939 937 58
940 937 58
955 937 22
956 937 22
957 937 22
1006 937 26
1007 937 26
1010 937 38
1011 937 38
1012 937 38
1026 937 26
1027 937 26
1032 937 40
1033 937 40
1034 937 40
1035 937 40
1039 937 58
1040 937 58
1041 937 58
1042 937 34
1043 937 34
1044 937 34
1113 937 21
1114 937 22
1115 937 22
1116 937 34
1117 937 33
1118 937 34
1119 937 22
1120 937 22
1121 937 22
1159 937 26
1160 937 26
1161 937 38
1162 937 38
1163 937 38
1164 937 26
1165 937 26
1170 937 38
1171 937 38
1172 937 56
1173 937 56
1174 937 56
1175 937 38
1176 937 38
1181 937 24
1182 937 24
1183 937 24
1188 937 36
1189 937 36
1190 937 36
939 938 58
940 938 58
955 938 22
956 938 22
957 938 22
1006 938 26
1007 938 26
1010 938 38
1011 938 38
1012 938 38
1026 938 26
1027 938 26
1032 938 40
1033 938 40
1034 938 40
1035 938 40
1039 938 58
1040 938 58
1041 938 58
1042 938 34
1043 938 34
1044 938 34
1113 938 20
1114 938 21
1115 938 21
1116 938 33
1117 938 32
1118 938 33
1119 938 22
1120 938 22
1121 938 22
1159 938 26
1160 938 26
1161 938 38
1162 938 38
1163 938 38
1164 938 26
1165 938 26
1170 938 38
1171 938 38
1172 938 55
1173 938 55
1174 938 55
1175 938 38
1176 938 38
1181 938 24
1182 938 24
1183 938 24
1188 938 35
1189 938 35
1190 938 35
940 939 82
941 939 16
943 939 33
1006 939 26
1007 939 26
1010 939 26
1011 939 26
1012 939 26
1026 939 35
1027 939 33
1029 939 15
1030 939 15
1031 939 12
1032 939 40
1033 939 40
1034 939 49
1035 939 47
1038 939 12
1039 939 40
1040 939 40
1041 939 40
1159 939 26
1160 939 26
1161 939 26
1162 939 26
1163 939 26
1164 939 26
1165 939 26
1170 939 38
1171 939 38
1172 939 38
1173 939 38
1174 939 38
1175 939 48
1176 939 49
1177 939 14
1178 939 15
1179 939 15
1180 939 15
1181 939 35
1182 939 24
1183 939 35
1184 939 14
1185 939 14
1186 939 16
1187 939 17
1188 939 27
1189 939 24
1190 939 24
941 940 16
942 940 29
943 940 34
1006 940 26
1007 940 26
1010 940 26
1011 940 26
1012 940 26
1026 940 36
1027 940 34
1029 940 16
1030 940 16
1031 940 13
1032 940 40
1033 940 40
1034 940 49
1035 940 47
1038 940 12
1039 940 40
1040 940 40
1041 940 40
1159 940 26
1160 940 26
1161 940 26
1162 940 26
1163 940 26
1164 940 26
1165 940 26
1170 940 38
1171 940 38
1172 940 38
1173 940 38
1174 940 38
1175 940 49
1176 940 50
1177 940 14
1178 940 16
1179 940 16
1180 940 16
1181 940 36
1182 940 24
1183 940 36
1184 940 14
1185 940 15
1186 940 17
1187 940 18
1188 940 27
1189 940 24
1190 940 24
1175 941 10
1176 941 10
1177 941 10
1181 941 10
1183 941 10
1184 941 10
943 942 31
1026 942 12
1027 942 11
1029 942 12
1030 942 12
1031 942 11
1037 942 11
1175 942 12
1176 942 13
1178 942 13
1179 942 13
1180 942 15
1181 942 13
1183 942 13
1185 942 12
1186 942 13
1187 942 15
1026 943 16
1027 943 14
1029 943 16
1030 943 16
1031 943 14
1034 943 17
1035 943 15
1037 943 14
1038 943 13
1175 943 16
1176 943 17
1178 943 15
1179 943 15
1180 943 17
1181 943 15
1183 943 15
1185 943 14
1186 943 15
1187 943 17
945 944 76
946 944 26
947 944 43
948 944 43
949 944 39
950 944 40
951 944 40
952 944 40
953 944 40
954 944 40
958 944 50
959 944 50
960 944 18
961 944 28
962 944 27
963 944 26
964 944 26
965 944 26
966 944 26
967 944 26
968 944 26
1079 944 40
1080 944 40
1081 944 40
1082 944 40
1083 944 40
1084 944 56
1085 944 56
1087 944 22
1088 944 25
1089 944 26
1090 944 26
1091 944 26
1095 944 26
1096 944 26
1103 944 38
1104 944 37
1106 944 13
1107 944 16
946 945 26
947 945 43
948 945 43
949 945 39
950 945 40
951 945 40
952 945 40
953 945 40
954 945 40
958 945 50
959 945 50
960 945 18
961 945 28
962 945 27
963 945 26
964 945 26
965 945 26
966 945 26
967 945 26
968 945 26
1079 945 40
1080 945 40
1081 945 40
1082 945 40
1083 945 40
1084 945 56
1085 945 56
1087 945 22
1088 945 25
1089 945 26
1090 945 26
1091 945 26
1095 945 26
1096 945 26
1103 945 38
1104 945 37
1106 945 13
1107 945 16
947 946 25
948 946 25
958 946 17
959 946 17
960 946 17
961 946 16
962 946 16
1084 946 19
1085 946 19
1103 946 12
1104 946 12
948 947 43
949 947 39
958 947 28
959 947 28
960 947 16
961 947 28
962 947 27
963 947 26
1084 947 26
1085 947 26
1087 947 22
1088 947 25
1103 947 18
1104 947 17
1106 947 13
1107 947 16
949 948 39
958 948 28
959 948 28
960 948 16
961 948 28
962 948 27
963 948 26
1084 948 26
1085 948 26
1087 948 22
1088 948 25
1103 948 18
1104 948 17
1106 948 13
1107 948 16
958 949 25
959 949 25
961 949 25
963 949 25
1084 949 22
1085 949 22
1087 949 21
1088 949 24
1103 949 15
1104 949 14
1106 949 12
1107 949 15
951 950 40
952 950 40
953 950 40
954 950 40
958 950 26
959 950 26
964 950 26
965 950 26
966 950 26
967 950 26
968 950 26
1079 950 40
1080 950 40
1081 950 40
1082 950 40
1083 950 40
1084 950 40
1085 950 40
1089 950 26
1090 950 26
1091 950 26
1095 950 26
1096 950 26
1103 950 26
1104 950 26
952 951 40
953 951 40
954 951 40
958 951 26
959 951 26
964 951 26
965 951 26
966 951 26
967 951 26
968 951 26
1079 951 40
1080 951 40
1081 951 40
1082 951 40
1083 951 40
1084 951 40
1085 951 40
1089 951 26
1090 951 26
1091 951 26
1095 951 26
1096 951 26
1103 951 26
1104 951 26
953 952 58
954 952 58
955 952 34
956 952 34
957 952 34
958 952 26
959 952 26
964 952 26
965 952 26
966 952 38
967 952 38
968 952 38
969 952 22
970 952 22
971 952 22
1042 952 34
1043 952 34
1044 952 34
1045 952 22
1046 952 22
1047 952 22
1079 952 58
1080 952 58
1081 952 58
1082 952 40
1083 952 40
1084 952 40
1085 952 40
1089 952 38
1090 952 38
1091 952 38
1095 952 26
1096 952 26
1103 952 26
1104 952 26
954 953 58
955 953 34
956 953 34
957 953 34
958 953 26
959 953 26
964 953 26
965 953 26
966 953 38
967 953 38
968 953 38
969 953 22
970 953 22
971 953 22
1042 953 34
1043 953 34
1044 953 34
1045 953 22
1046 953 22
1047 953 22
1079 953 58
1080 953 58
1081 953 58
1082 953 40
1083 953 40
1084 953 40
1085 953 40
1089 953 38
1090 953 38
1091 953 38
1095 953 26
1096 953 26
1103 953 26
1104 953 26
955 954 34
956 954 34
957 954 34
958 954 26
959 954 26
964 954 26
965 954 26
966 954 38
967 954 38
968 954 38
969 954 22
970 954 22
971 954 22
1042 954 34
1043 954 34
1044 954 34
1045 954 22
1046 954 22
1047 954 22
1079 954 58
1080 954 58
1081 954 58
1082 954 40
1083 954 40
1084 954 40
1085 954 40
1089 954 38
1090 954 38
1091 954 38
1095 954 26
1096 954 26
1103 954 26
1104 954 26
956 955 52
957 955 52
966 955 22
967 955 22
968 955 22
969 955 34
970 955 34
971 955 34
1010 955 34
1011 955 34
1012 955 34
1013 955 22
1014 955 22
1015 955 22
1039 955 34
1040 955 34
1041 955 34
1042 955 52
1043 955 52
1044 955 52
1045 955 34
1046 955 34
1047 955 34
1050 955 22
1051 955 22
1052 955 22
1079 955 34
1080 955 34
1081 955 34
1089 955 22
1090 955 22
1091 955 22
957 956 52
966 956 22
967 956 22
968 956 22
969 956 34
970 956 34
971 956 34
1010 956 34
1011 956 34
1012 956 34
1013 956 22
1014 956 22
1015 956 22
1039 956 34
1040 956 34
1041 956 34
1042 956 52
1043 956 52
1044 956 52
1045 956 34
1046 956 34
1047 956 34
1050 956 22
1051 956 22
1052 956 22
1079 956 34
1080 956 34
1081 956 34
1089 956 22
1090 956 22
1091 956 22
966 957 22
967 957 22
968 957 22
969 957 34
970 957 34
971 957 34
1010 957 34
1011 957 34
1012 957 34
1013 957 22
1014 957 22
1015 957 22
1039 957 34
1040 957 34
1041 957 34
1042 957 52
1043 957 52
1044 957 52
1045 957 34
1046 957 34
1047 957 34
1050 957 22
1051 957 22
1052 957 22
1079 957 34
1080 957 34
1081 957 34
1089 957 22
1090 957 22
1091 957 22
959 958 75
960 958 27
961 958 44
962 958 43
963 958 41
964 958 38
965 958 38
966 958 38
967 958 38
968 958 38
972 958 48
973 958 14
974 958 29
975 958 31
976 958 29
977 958 48
978 958 24
979 958 28
980 958 24
981 958 24
1079 958 26
1080 958 26
1081 958 26
1082 958 26
1083 958 26
1084 958 37
1085 958 37
1087 958 16
1088 958 16
1089 958 38
1090 958 38
1091 958 38
1092 958 28
1093 958 24
1094 958 24
1095 958 38
1096 958 38
1097 958 35
1098 958 24
1103 958 57
1104 958 56
1106 958 23
1107 958 26
1108 958 35
1110 958 15
1111 958 17
1112 958 19
960 959 27
961 959 44
962 959 43
963 959 41
964 959 38
965 959 38
966 959 38
967 959 38
968 959 38
972 959 48
973 959 14
974 959 29
975 959 31
976 959 29
977 959 48
978 959 24
979 959 28
980 959 24
981 959 24
1079 959 26
1080 959 26
1081 959 26
1082 959 26
1083 959 26
1084 959 37
1085 959 37
1087 959 16
1088 959 16
1089 959 38
1090 959 38
1091 959 38
1092 959 28
1093 959 24
1094 959 24
1095 959 38
1096 959 38
1097 959 35
1098 959 24
1103 959 57
1104 959 56
1106 959 23
1107 959 26
1108 959 35
1110 959 15
1111 959 17
1112 959 19
961 960 25
962 960 25
972 960 16
973 960 14
974 960 16
975 960 16
977 960 16
1084 960 12
1085 960 12
1097 960 12
1103 960 19
1104 960 19
1108 960 12
962 961 43
963 961 41
972 961 28
973 961 14
974 961 29
975 961 29
976 961 27
977 961 28
1084 961 17
1085 961 17
1087 961 16
1088 961 16
1097 961 17
1103 961 29
1104 961 28
1106 961 23
1107 961 26
1108 961 17
1110 961 15
1111 961 15
1112 961 17
963 962 40
972 962 28
973 962 14
974 962 29
975 962 29
976 962 27
977 962 28
1084 962 16
1085 962 16
1087 962 15
1088 962 15
1097 962 17
1103 962 28
1104 962 27
1106 962 22
1107 962 25
1108 962 17
1110 962 15
1111 962 15
1112 962 17
972 963 27
974 963 27
975 963 27
976 963 27
977 963 27
1084 963 15
1085 963 15
1087 963 16
1088 963 16
1097 963 15
1103 963 26
1104 963 25
1106 963 23
1107 963 26
1108 963 15
1110 963 15
1111 963 15
1112 963 17
965 964 38
966 964 38
967 964 38
968 964 38
972 964 24
977 964 24
978 964 24
979 964 24
980 964 24
981 964 24
1079 964 26
1080 964 26
1081 964 26
1082 964 26
1083 964 26
1084 964 26
1085 964 26
1089 964 38
1090 964 38
1091 964 38
1092 964 24
1093 964 24
1094 964 24
1095 964 38
1096 964 38
1097 964 24
1098 964 24
1103 964 38
1104 964 38
1108 964 24
966 965 38
967 965 38
968 965 38
972 965 24
977 965 24
978 965 24
979 965 24
980 965 24
981 965 24
1079 965 26
1080 965 26
1081 965 26
1082 965 26
1083 965 26
1084 965 26
1085 965 26
1089 965 38
1090 965 38
1091 965 38
1092 965 24
1093 965 24
1094 965 24
1095 965 38
1096 965 38
1097 965 24
1098 965 24
1103 965 38
1104 965 38
1108 965 24
967 966 56
968 966 56
969 966 34
970 966 34
971 966 34
972 966 24
977 966 24
978 966 24
979 966 36
980 966 36
981 966 36
987 966 22
988 966 22
989 966 22
1042 966 22
1043 966 22
1044 966 22
1045 966 34
1046 966 34
1047 966 34
1072 966 22
1073 966 22
1074 966 22
1079 966 38
1080 966 38
1081 966 38
1082 966 26
1083 966 26
1084 966 26
1085 966 26
1089 966 56
1090 966 56
1091 966 56
1092 966 36
1093 966 36
1094 966 36
1095 966 38
1096 966 38
1097 966 24
1098 966 24
1103 966 38
1104 966 38
1108 966 24
968 967 56
969 967 34
970 967 34
971 967 34
972 967 24
977 967 24
978 967 24
979 967 36
980 967 36
981 967 36
987 967 22
988 967 22
989 967 22
1042 967 22
1043 967 22
1044 967 22
1045 967 34
1046 967 34
1047 967 34
1072 967 22
1073 967 22
1074 967 22
1079 967 38
1080 967 38
1081 967 38
1082 967 26
1083 967 26
1084 967 26
1085 967 26
1089 967 56
1090 967 56
1091 967 56
1092 967 36
1093 967 36
1094 967 36
1095 967 38
1096 967 38
1097 967 24
1098 967 24
1103 967 38
1104 967 38
1108 967 24
969 968 34
970 968 34
971 968 34
972 968 24
977 968 24
978 968 24
979 968 36
980 968 36
981 968 36
987 968 22
988 968 22
989 968 22
1042 968 22
1043 968 22
1044 968 22
1045 968 34
1046 968 34
1047 968 34
1072 968 22
1073 968 22
1074 968 22
1079 968 38
1080 968 38
1081 968 38
1082 968 26
1083 968 26
1084 968 26
1085 968 26
1089 968 56
1090 968 56
1091 968 56
1092 968 36
1093 968 36
1094 968 36
1095 968 38
1096 968 38
1097 968 24
1098 968 24
1103 968 38
1104 968 38
1108 968 24
970 969 52
971 969 52
979 969 22
980 969 22
981 969 22
987 969 34
988 969 34
989 969 34
1010 969 22
1011 969 22
1012 969 22
1013 969 34
1014 969 34
1015 969 34
1016 969 22
1017 969 22
1018 969 22
1039 969 22
1040 969 22
1041 969 22
1042 969 34
1043 969 34
1044 969 34
1045 969 52
1046 969 52
1047 969 52
1050 969 34
1051 969 34
1052 969 34
1060 969 22
1061 969 22
1062 969 21
1072 969 33
1073 969 34
1074 969 34
1079 969 22
1080 969 22
1081 969 22
1089 969 34
1090 969 34
1091 969 34
1092 969 22
1093 969 22
1094 969 22
971 970 52
979 970 22
980 970 22
981 970 22
987 970 34
988 970 34
989 970 34
1010 970 22
1011 970 22
1012 970 22
1013 970 34
1014 970 34
1015 970 34
1016 970 22
1017 970 22
1018 970 22
1039 970 22
1040 970 22
1041 970 22
1042 970 34
1043 970 34
1044 970 34
1045 970 52
1046 970 52
1047 970 52
1050 970 34
1051 970 34
1052 970 34
1060 970 22
1061 970 22
1062 970 21
1072 970 33
1073 970 34
1074 970 34
1079 970 22
1080 970 22
1081 970 22
1089 970 34
1090 970 34
1091 970 34
1092 970 22
1093 970 22
1094 970 22
979 971 22
980 971 22
981 971 22
987 971 34
988 971 34
989 971 34
1010 971 22
1011 971 22
1012 971 22
1013 971 34
1014 971 34
1015 971 34
1016 971 22
1017 971 22
1018 971 22
1039 971 22
1040 971 22
1041 971 22
1042 971 34
1043 971 34
1044 971 34
1045 971 52
1046 971 52
1047 971 52
1050 971 34
1051 971 34
1052 971 34
1060 971 22
1061 971 22
1062 971 21
1072 971 33
1073 971 34
1074 971 34
1079 971 22
1080 971 22
1081 971 22
1089 971 34
1090 971 34
1091 971 34
1092 971 22
1093 971 22
1094 971 22
974 972 28
975 972 30
976 972 29
977 972 48
978 972 24
979 972 28
980 972 24
981 972 24
1089 972 24
1090 972 24
1091 972 24
1092 972 28
1093 972 24
1094 972 24
1095 972 24
1096 972 24
1097 972 34
1098 972 24
1103 972 36
1104 972 35
1106 972 16
1107 972 17
1108 972 34
1110 972 15
1111 972 17
1112 972 19
974 973 14
975 973 14
1097 973 10
1103 973 10
1104 973 10
1108 973 10
975 974 29
976 974 27
977 974 28
1097 974 17
1103 974 19
1104 974 18
1106 974 16
1107 974 17
1108 974 17
1110 974 15
1111 974 15
1112 974 17
976 975 29
977 975 30
979 975 12
1092 975 12
1097 975 19
1103 975 21
1104 975 20
1106 975 16
1107 975 17
1108 975 19
1110 975 15
1111 975 17
1112 975 19
977 976 29
979 976 12
1092 976 12
1097 976 17
1103 976 19
1104 976 18
1106 976 16
1107 976 17
1108 976 17
1110 976 15
1111 976 17
1112 976 19
978 977 24
979 977 28
980 977 24
981 977 24
1089 977 24
1090 977 24
1091 977 24
1092 977 28
1093 977 24
1094 977 24
1095 977 24
1096 977 24
1097 977 34
1098 977 24
1103 977 36
1104 977 35
1106 977 16
1107 977 17
1108 977 34
1110 977 15
1111 977 17
1112 977 19
979 978 24
980 978 24
981 978 24
1089 978 24
1090 978 24
1091 978 24
1092 978 24
1093 978 24
1094 978 24
1095 978 24
1096 978 24
1097 978 24
1098 978 24
1103 978 24
1104 978 24
1108 978 24
980 979 36
981 979 36
987 979 22
988 979 22
989 979 22
1045 979 22
1046 979 22
1047 979 22
1072 979 22
1073 979 22
1074 979 22
1089 979 36
1090 979 36
1091 979 36
1092 979 40
1093 979 36
1094 979 36
1095 979 24
1096 979 24
1097 979 27
1098 979 24
1103 979 28
1104 979 28
1108 979 27
1111 979 10
1112 979 12
981 980 36
987 980 22
988 980 22
989 980 22
1045 980 22
1046 980 22
1047 980 22
1072 980 22
1073 980 22
1074 980 22
1089 980 36
1090 980 36
1091 980 36
1092 980 36
1093 980 36
1094 980 36
1095 980 24
1096 980 24
1097 980 24
1098 980 24
1103 980 24
1104 980 24
1108 980 24
987 981 22
988 981 22
989 981 22
1045 981 22
1046 981 22
1047 981 22
1072 981 22
1073 981 22
1074 981 22
1089 981 36
1090 981 36
1091 981 36
1092 981 36
1093 981 36
1094 981 36
1095 981 24
1096 981 24
1097 981 24
1098 981 24
1103 981 24
1104 981 24
1108 981 24
988 987 34
989 987 34
1013 987 22
1014 987 22
1015 987 22
1016 987 22
1017 987 22
1018 987 22
1045 987 34
1046 987 34
1047 987 34
1050 987 22
1051 987 22
1052 987 22
1060 987 22
1061 987 22
1062 987 21
1072 987 33
1073 987 34
1074 987 34
1089 987 22
1090 987 22
1091 987 22
1092 987 22
1093 987 22
1094 987 22
989 988 34
1013 988 22
1014 988 22
1015 988 22
1016 988 22
1017 988 22
1018 988 22
1045 988 34
1046 988 34
1047 988 34
1050 988 22
1051 988 22
1052 988 22
1060 988 22
1061 988 22
1062 988 21
1072 988 33
1073 988 34
1074 988 34
1089 988 22
1090 988 22
1091 988 22
1092 988 22
1093 988 22
1094 988 22
1013 989 22
1014 989 22
1015 989 22
1016 989 22
1017 989 22
1018 989 22
1045 989 34
1046 989 34
1047 989 34
1050 989 22
1051 989 22
1052 989 22
1060 989 22
1061 989 22
1062 989 21
1072 989 33
1073 989 34
1074 989 34
1089 989 22
1090 989 22
1091 989 22
1092 989 22
1093 989 22
1094 989 22
1001 1000 74
1002 1000 25
1003 1000 42
1004 1000 42
1005 1000 41
1006 1000 26
1007 1000 26
1008 1000 38
1009 1000 38
1010 1000 26
1011 1000 26
1012 1000 26
1013 1000 38
1014 1000 38
1015 1000 38
1016 1000 27
1017 1000 24
1018 1000 24
1019 1000 48
1020 1000 24
1021 1000 49
1022 1000 15
1023 1000 29
1024 1000 31
1025 1000 27
1026 1000 49
1027 1000 46
1029 1000 27
1030 1000 27
1031 1000 23
1032 1000 26
1033 1000 26
1034 1000 36
1035 1000 34
1037 1000 13
1038 1000 14
1039 1000 26
1040 1000 26
1041 1000 26
1048 1000 38
1049 1000 38
1050 1000 38
1051 1000 38
1052 1000 38
1053 1000 54
1054 1000 55
1056 1000 24
1057 1000 25
1058 1000 35
1059 1000 24
1060 1000 27
1061 1000 24
1062 1000 24
1063 1000 35
1065 1000 14
1066 1000 15
1067 1000 19
1002 1001 25
1003 1001 42
1004 1001 42
1005 1001 41
1006 1001 26
1007 1001 26
1008 1001 38
1009 1001 38
1010 1001 26
1011 1001 26
1012 1001 26
1013 1001 38
1014 1001 38
1015 1001 38
1016 1001 27
1017 1001 24
1018 1001 24
1019 1001 48
1020 1001 24
1021 1001 49
1022 1001 15
1023 1001 29
1024 1001 31
1025 1001 27
1026 1001 49
1027 1001 46
1029 1001 27
1030 1001 27
1031 1001 23
1032 1001 26
1033 1001 26
1034 1001 36
1035 1001 34
1037 1001 13
1038 1001 14
1039 1001 26
1040 1001 26
1041 1001 26
1048 1001 38
1049 1001 38
1050 1001 38
1051 1001 38
1052 1001 38
1053 1001 54
1054 1001 55
1056 1001 24
1057 1001 25
1058 1001 35
1059 1001 24
1060 1001 27
1061 1001 24
1062 1001 24
1063 1001 35
1065 1001 14
1066 1001 15
1067 1001 19
1003 1002 24
1004 1002 24
1019 1002 16
1021 1002 17
1022 1002 15
1023 1002 16
1024 1002 16
1026 1002 16
1027 1002 16
1029 1002 15
1030 1002 15
1034 1002 11
1035 1002 11
1053 1002 18
1054 1002 18
1058 1002 12
1063 1002 12
1004 1003 42
1005 1003 40
1019 1003 27
1021 1003 28
1022 1003 15
1023 1003 28
1024 1003 28
1026 1003 27
1027 1003 24
1029 1003 27
1030 1003 27
1031 1003 23
1034 1003 16
1035 1003 14
1037 1003 13
1038 1003 14
1053 1003 25
1054 1003 26
1056 1003 23
1057 1003 24
1058 1003 16
1063 1003 16
1065 1003 13
1066 1003 14
1067 1003 16
1005 1004 40
1019 1004 27
1021 1004 28
1022 1004 15
1023 1004 28
1024 1004 28
1026 1004 27
1027 1004 24
1029 1004 27
1030 1004 27
1031 1004 23
1034 1004 16
1035 1004 14
1037 1004 13
1038 1004 14
1053 1004 25
1054 1004 26
1056 1004 23
1057 1004 24
1058 1004 16
1063 1004 16
1065 1004 13
1066 1004 14
1067 1004 16
1019 1005 27
1021 1005 27
1023 1005 27
1024 1005 27
1025 1005 25
1026 1005 26
1027 1005 23
1029 1005 26
1030 1005 26
1031 1005 23
1034 1005 15
1035 1005 13
1037 1005 13
1038 1005 14
1053 1005 24
1054 1005 25
1056 1005 24
1057 1005 25
1058 1005 15
1063 1005 15
1065 1005 14
1066 1005 15
1067 1005 17
1007 1006 40
1008 1006 26
1009 1006 26
1010 1006 40
1011 1006 40
1012 1006 40
1013 1006 26
1014 1006 26
1015 1006 26
1026 1006 40
1027 1006 40
1032 1006 40
1033 1006 40
1034 1006 40
1035 1006 40
1039 1006 40
1040 1006 40
1041 1006 40
1048 1006 26
1049 1006 26
1050 1006 26
1051 1006 26
1052 1006 26
1053 1006 26
1054 1006 26
1008 1007 26
1009 1007 26
1010 1007 40
1011 1007 40
1012 1007 40
1013 1007 26
1014 1007 26
1015 1007 26
1026 1007 40
1027 1007 40
1032 1007 40
1033 1007 40
1034 1007 40
1035 1007 40
1039 1007 40
1040 1007 40
1041 1007 40
1048 1007 26
1049 1007 26
1050 1007 26
1051 1007 26
1052 1007 26
1053 1007 26
1054 1007 26
1009 1008 38
1010 1008 26
1011 1008 26
1012 1008 26
1013 1008 38
1014 1008 38
1015 1008 38
1016 1008 24
1017 1008 24
1018 1008 24
1019 1008 24
1020 1008 24
1021 1008 24
1026 1008 26
1027 1008 26
1032 1008 26
1033 1008 26
1034 1008 26
1035 1008 26
1039 1008 26
1040 1008 26
1041 1008 26
1048 1008 38
1049 1008 38
1050 1008 38
1051 1008 38
1052 1008 38
1053 1008 38
1054 1008 38
1058 1008 24
1059 1008 24
1060 1008 24
1061 1008 24
1062 1008 24
1063 1008 24
1010 1009 26
1011 1009 26
1012 1009 26
1013 1009 38
1014 1009 38
1015 1009 38
1016 1009 24
1017 1009 24
1018 1009 24
1019 1009 24
1020 1009 24
1021 1009 24
1026 1009 26
1027 1009 26
1032 1009 26
1033 1009 26
1034 1009 26
1035 1009 26
1039 1009 26
1040 1009 26
1041 1009 26
1048 1009 38
1049 1009 38
1050 1009 38
1051 1009 38
1052 1009 38
1053 1009 38
1054 1009 38
1058 1009 24
1059 1009 24
1060 1009 24
1061 1009 24
1062 1009 24
1063 1009 24
1011 1010 58
1012 1010 58
1013 1010 38
1014 1010 38
1015 1010 38
1026 1010 40
1027 1010 40
1032 1010 40
1033 1010 40
1034 1010 40
1035 1010 40
1039 1010 58
1040 1010 58
1041 1010 58
1042 1010 34
1043 1010 34
1044 1010 34
1045 1010 22
1046 1010 22
1047 1010 22
1048 1010 26
1049 1010 26
1050 1010 38
1051 1010 38
1052 1010 38
1053 1010 26
1054 1010 26
1012 1011 58
1013 1011 38
1014 1011 38
1015 1011 38
1026 1011 40
1027 1011 40
1032 1011 40
1033 1011 40
1034 1011 40
1035 1011 40
1039 1011 58
1040 1011 58
1041 1011 58
1042 1011 34
1043 1011 34
1044 1011 34
1045 1011 22
1046 1011 22
1047 1011 22
1048 1011 26
1049 1011 26
1050 1011 38
1051 1011 38
1052 1011 38
1053 1011 26
1054 1011 26
1013 1012 38
1014 1012 38
1015 1012 38
1026 1012 40
1027 1012 40
1032 1012 40
1033 1012 40
1034 1012 40
1035 1012 40
1039 1012 58
1040 1012 58
1041 1012 58
1042 1012 34
1043 1012 34
1044 1012 34
1045 1012 22
1046 1012 22
1047 1012 22
1048 1012 26
1049 1012 26
1050 1012 38
1051 1012 38
1052 1012 38
1053 1012 26
1054 1012 26
1014 1013 56
1015 1013 56
1016 1013 36
1017 1013 36
1018 1013 36
1019 1013 24
1020 1013 24
1021 1013 24
1026 1013 26
1027 1013 26
1032 1013 26
1033 1013 26
1034 1013 26
1035 1013 26
1039 1013 38
1040 1013 38
1041 1013 38
1042 1013 22
1043 1013 22
1044 1013 22
1045 1013 34
1046 1013 34
1047 1013 34
1048 1013 38
1049 1013 38
1050 1013 56
1051 1013 56
1052 1013 56
1053 1013 38
1054 1013 38
1058 1013 24
1059 1013 24
1060 1013 36
1061 1013 36
1062 1013 35
1063 1013 24
1072 1013 21
1073 1013 22
1074 1013 22
1015 1014 56
1016 1014 36
1017 1014 36
1018 1014 36
1019 1014 24
1020 1014 24
1021 1014 24
1026 1014 26
1027 1014 26
1032 1014 26
1033 1014 26
1034 1014 26
1035 1014 26
1039 1014 38
1040 1014 38
1041 1014 38
1042 1014 22
1043 1014 22
1044 1014 22
1045 1014 34
1046 1014 34
1047 1014 34
1048 1014 38
1049 1014 38
1050 1014 56
1051 1014 56
1052 1014 56
1053 1014 38
1054 1014 38
1058 1014 24
1059 1014 24
1060 1014 36
1061 1014 36
1062 1014 35
1063 1014 24
1072 1014 21
1073 1014 22
1074 1014 22
1016 1015 36
1017 1015 36
1018 1015 36
1019 1015 24
1020 1015 24
1021 1015 24
1026 1015 26
1027 1015 26
1032 1015 26
1033 1015 26
1034 1015 26
1035 1015 26
1039 1015 38
1040 1015 38
1041 1015 38
1042 1015 22
1043 1015 22
1044 1015 22
1045 1015 34
1046 1015 34
1047 1015 34
1048 1015 38
1049 1015 38
1050 1015 56
1051 1015 56
1052 1015 56
1053 1015 38
1054 1015 38
1058 1015 24
1059 1015 24
1060 1015 36
1061 1015 36
1062 1015 35
1063 1015 24
1072 1015 21
1073 1015 22
1074 1015 22
1017 1016 36
1018 1016 36
1019 1016 27
1020 1016 24
1021 1016 27
1024 1016 11
1025 1016 11
1045 1016 22
1046 1016 22
1047 1016 22
1048 1016 24
1049 1016 24
1050 1016 36
1051 1016 36
1052 1016 36
1053 1016 27
1054 1016 27
1058 1016 27
1059 1016 24
1060 1016 39
1061 1016 36
1062 1016 35
1063 1016 27
1067 1016 11
1072 1016 21
1073 1016 22
1074 1016 22
1018 1017 36
1019 1017 24
1020 1017 24
1021 1017 24
1045 1017 22
1046 1017 22
1047 1017 22
1048 1017 24
1049 1017 24
1050 1017 36
1051 1017 36
1052 1017 36
1053 1017 24
1054 1017 24
1058 1017 24
1059 1017 24
1060 1017 36
1061 1017 36
1062 1017 35
1063 1017 24
1072 1017 21
1073 1017 22
1074 1017 22
1019 1018 24
1020 1018 24
1021 1018 24
1045 1018 22
1046 1018 22
1047 1018 22
1048 1018 24
1049 1018 24
1050 1018 36
1051 1018 36
1052 1018 36
1053 1018 24
1054 1018 24
1058 1018 24
1059 1018 24
1060 1018 36
1061 1018 36
1062 1018 35
1063 1018 24
1072 1018 21
1073 1018 22
1074 1018 22
1020 1019 24
1021 1019 48
1023 1019 28
1024 1019 30
1025 1019 27
1048 1019 24
1049 1019 24
1050 1019 24
1051 1019 24
1052 1019 24
1053 1019 35
1054 1019 36
1056 1019 17
1057 1019 17
1058 1019 34
1059 1019 24
1060 1019 27
1061 1019 24
1062 1019 24
1063 1019 34
1065 1019 14
1066 1019 15
1067 1019 19
1021 1020 24
1048 1020 24
1049 1020 24
1050 1020 24
1051 1020 24
1052 1020 24
1053 1020 24
1054 1020 24
1058 1020 24
1059 1020 24
1060 1020 24
1061 1020 24
1062 1020 24
1063 1020 24
1022 1021 15
1023 1021 29
1024 1021 31
1025 1021 27
1048 1021 24
1049 1021 24
1050 1021 24
1051 1021 24
1052 1021 24
1053 1021 36
1054 1021 37
1056 1021 17
1057 1021 17
1058 1021 35
1059 1021 24
1060 1021 27
1061 1021 24
1062 1021 24
1063 1021 35
1065 1021 14
1066 1021 15
1067 1021 19
1023 1022 15
1024 1022 15
1053 1022 11
1054 1022 11
1058 1022 11
1063 1022 11
1024 1023 29
1025 1023 25
1053 1023 18
1054 1023 19
1056 1023 17
1057 1023 17
1058 1023 17
1063 1023 17
1065 1023 14
1066 1023 15
1067 1023 17
1025 1024 27
1053 1024 20
1054 1024 21
1056 1024 17
1057 1024 17
1058 1024 19
1060 1024 11
1063 1024 19
1065 1024 14
1066 1024 15
1067 1024 19
1053 1025 16
1054 1025 17
1056 1025 15
1057 1025 15
1058 1025 15
1060 1025 11
1063 1025 15
1065 1025 12
1066 1025 13
1067 1025 17
1027 1026 72
1029 1026 42
1030 1026 42
1031 1026 37
1032 1026 40
1033 1026 40
1034 1026 55
1035 1026 53
1037 1026 20
1038 1026 22
1039 1026 40
1040 1026 40
1041 1026 40
1048 1026 26
1049 1026 26
1050 1026 26
1051 1026 26
1052 1026 26
1053 1026 36
1054 1026 36
1056 1026 14
1057 1026 15
1029 1027 39
1030 1027 39
1032 1027 40
1033 1027 40
1034 1027 53
1035 1027 53
1037 1027 18
1039 1027 40
1040 1027 40
1041 1027 40
1048 1027 26
1049 1027 26
1050 1027 26
1051 1027 26
1052 1027 26
1053 1027 34
1054 1027 34
1056 1027 12
1057 1027 13
1030 1029 42
1031 1029 37
1034 1029 25
1035 1029 23
1037 1029 20
1038 1029 22
1053 1029 16
1054 1029 16
1056 1029 14
1057 1029 15
1031 1030 37
1034 1030 25
1035 1030 23
1037 1030 20
1038 1030 22
1053 1030 16
1054 1030 16
1056 1030 14
1057 1030 15
1034 1031 21
1037 1031 18
1038 1031 22
1053 1031 13
1054 1031 13
1056 1031 13
1057 1031 13
1033 1032 61
1034 1032 61
1035 1032 61
1039 1032 61
1040 1032 61
1041 1032 61
1048 1032 40
1049 1032 40
1050 1032 40
1051 1032 40
1052 1032 40
1053 1032 40
1054 1032 40
1148 1032 26
1149 1032 26
1150 1032 26
1151 1032 26
1152 1032 26
1153 1032 26
1154 1032 26
1159 1032 40
1160 1032 40
1161 1032 40
1162 1032 40
1163 1032 40
1164 1032 40
1165 1032 40
1170 1032 26
1171 1032 26
1172 1032 26
1173 1032 26
1174 1032 26
1175 1032 26
1176 1032 26
1034 1033 61
1035 1033 61
1039 1033 61
1040 1033 61
1041 1033 61
1048 1033 40
1049 1033 40
1050 1033 40
1051 1033 40
1052 1033 40
1053 1033 40
1054 1033 40
1148 1033 26
1149 1033 26
1150 1033 26
1151 1033 26
1152 1033 26
1153 1033 26
1154 1033 26
1159 1033 40
1160 1033 40
1161 1033 40
1162 1033 40
1163 1033 40
1164 1033 40
1165 1033 40
1170 1033 26
1171 1033 26
1172 1033 26
1173 1033 26
1174 1033 26
1175 1033 26
1176 1033 26
1035 1034 74
1037 1034 18
1038 1034 23
1039 1034 61
1040 1034 61
1041 1034 61
1048 1034 40
1049 1034 40
1050 1034 40
1051 1034 40
1052 1034 40
1053 1034 49
1054 1034 49
1057 1034 16
1148 1034 26
1149 1034 26
1150 1034 26
1151 1034 26
1152 1034 26
1153 1034 28
1154 1034 28
1159 1034 40
1160 1034 40
1161 1034 40
1162 1034 40
1163 1034 40
1164 1034 40
1165 1034 40
1170 1034 26
1171 1034 26
1172 1034 26
1173 1034 26
1174 1034 26
1175 1034 27
1176 1034 27
1037 1035 16
1039 1035 61
1040 1035 61
1041 1035 61
1048 1035 40
1049 1035 40
1050 1035 40
1051 1035 40
1052 1035 40
1053 1035 47
1054 1035 47
1057 1035 14
1148 1035 26
1149 1035 26
1150 1035 26
1151 1035 26
1152 1035 26
1153 1035 27
1154 1035 27
1159 1035 40
1160 1035 40
1161 1035 40
1162 1035 40
1163 1035 40
1164 1035 40
1165 1035 40
1170 1035 26
1171 1035 26
1172 1035 26
1173 1035 26
1174 1035 26
1175 1035 27
1176 1035 27
1038 1037 17
1056 1037 11
1053 1038 16
1054 1038 16
1056 1038 16
1057 1038 16
1040 1039 88
1041 1039 88
1042 1039 52
1043 1039 52
1044 1039 52
1045 1039 34
1046 1039 34
1047 1039 34
1048 1039 40
1049 1039 40
1050 1039 58
1051 1039 58
1052 1039 58
1053 1039 40
1054 1039 40
1116 1039 22
1117 1039 22
1118 1039 22
1119 1039 34
1120 1039 34
1121 1039 34
1122 1039 22
1123 1039 22
1124 1039 22
1148 1039 26
1149 1039 26
1150 1039 38
1151 1039 38
1152 1039 38
1153 1039 26
1154 1039 26
1159 1039 40
1160 1039 40
1161 1039 58
1162 1039 58
1163 1039 58
1164 1039 40
1165 1039 40
1170 1039 26
1171 1039 26
1172 1039 38
1173 1039 38
1174 1039 38
1175 1039 26
1176 1039 26
1041 1040 88
1042 1040 52
1043 1040 52
1044 1040 52
1045 1040 34
1046 1040 34
1047 1040 34
1048 1040 40
1049 1040 40
1050 1040 58
1051 1040 58
1052 1040 58
1053 1040 40
1054 1040 40
1116 1040 22
1117 1040 22
1118 1040 22
1119 1040 34
1120 1040 34
1121 1040 34
1122 1040 22
1123 1040 22
1124 1040 22
1148 1040 26
1149 1040 26
1150 1040 38
1151 1040 38
1152 1040 38
1153 1040 26
1154 1040 26
1159 1040 40
1160 1040 40
1161 1040 58
1162 1040 58
1163 1040 58
1164 1040 40
1165 1040 40
1170 1040 26
1171 1040 26
1172 1040 38
1173 1040 38
1174 1040 38
1175 1040 26
1176 1040 26
1042 1041 52
1043 1041 52
1044 1041 52
1045 1041 34
1046 1041 34
1047 1041 34
1048 1041 40
1049 1041 40
1050 1041 58
1051 1041 58
1052 1041 58
1053 1041 40
1054 1041 40
1116 1041 22
1117 1041 22
1118 1041 22
1119 1041 34
1120 1041 34
1121 1041 34
1122 1041 22
1123 1041 22
1124 1041 22
1148 1041 26
1149 1041 26
1150 1041 38
1151 1041 38
1152 1041 38
1153 1041 26
1154 1041 26
1159 1041 40
1160 1041 40
1161 1041 58
1162 1041 58
1163 1041 58
1164 1041 40
1165 1041 40
1170 1041 26
1171 1041 26
1172 1041 38
1173 1041 38
1174 1041 38
1175 1041 26
1176 1041 26
1043 1042 79
1044 1042 79
1045 1042 52
1046 1042 52
1047 1042 52
1050 1042 34
1051 1042 34
1052 1042 34
1079 1042 52
1080 1042 52
1081 1042 52
1089 1042 34
1090 1042 34
1091 1042 34
1116 1042 34
1117 1042 34
1118 1042 34
1119 1042 52
1120 1042 52
1121 1042 52
1122 1042 34
1123 1042 34
1124 1042 34
1150 1042 22
1151 1042 22
1152 1042 22
1161 1042 34
1162 1042 34
1163 1042 34
1172 1042 22
1173 1042 22
1174 1042 22
1217 1042 22
1218 1042 22
1219 1042 22
1228 1042 34
1229 1042 34
1230 1042 34
1239 1042 22
1240 1042 22
1241 1042 22
1044 1043 79
1045 1043 52
1046 1043 52
1047 1043 52
1050 1043 34
1051 1043 34
1052 1043 34
1079 1043 52
1080 1043 52
1081 1043 52
1089 1043 34
1090 1043 34
1091 1043 34
1116 1043 34
1117 1043 34
1118 1043 34
1119 1043 52
1120 1043 52
1121 1043 52
1122 1043 34
1123 1043 34
1124 1043 34
1150 1043 22
1151 1043 22
1152 1043 22
1161 1043 34
1162 1043 34
1163 1043 34
1172 1043 22
1173 1043 22
1174 1043 22
1217 1043 22
1218 1043 22
1219 1043 22
1228 1043 34
1229 1043 34
1230 1043 34
1239 1043 22
1240 1043 22
1241 1043 22
1045 1044 52
1046 1044 52
1047 1044 52
1050 1044 34
1051 1044 34
1052 1044 34
1079 1044 52
1080 1044 52
1081 1044 52
1089 1044 34
1090 1044 34
1091 1044 34
1116 1044 34
1117 1044 34
1118 1044 34
1119 1044 52
1120 1044 52
1121 1044 52
1122 1044 34
1123 1044 34
1124 1044 34
1150 1044 22
1151 1044 22
1152 1044 22
1161 1044 34
1162 1044 34
1163 1044 34
1172 1044 22
1173 1044 22
1174 1044 22
1217 1044 22
1218 1044 22
1219 1044 22
1228 1044 34
1229 1044 34
1230 1044 34
1239 1044 22
1240 1044 22
1241 1044 22
1046 1045 79
1047 1045 79
1050 1045 52
1051 1045 52
1052 1045 52
1060 1045 34
1061 1045 34
1062 1045 33
1072 1045 51
1073 1045 52
1074 1045 52
1079 1045 34
1080 1045 34
1081 1045 34
1089 1045 52
1090 1045 52
1091 1045 52
1092 1045 34
1093 1045 34
1094 1045 34
1119 1045 34
1120 1045 34
1121 1045 34
1122 1045 52
1123 1045 52
1124 1045 52
1125 1045 34
1126 1045 34
1127 1045 34
1140 1045 22
1141 1045 22
1142 1045 22
1150 1045 34
1151 1045 34
1152 1045 34
1161 1045 22
1162 1045 22
1163 1045 22
1228 1045 22
1229 1045 22
1230 1045 22
1239 1045 34
1240 1045 34
1241 1045 34
1242 1045 22
1243 1045 22
1244 1045 22
1047 1046 79
1050 1046 52
1051 1046 52
1052 1046 52
1060 1046 34
1061 1046 34
1062 1046 33
1072 1046 51
1073 1046 52
1074 1046 52
1079 1046 34
1080 1046 34
1081 1046 34
1089 1046 52
1090 1046 52
1091 1046 52
1092 1046 34
1093 1046 34
1094 1046 34
1119 1046 34
1120 1046 34
1121 1046 34
1122 1046 52
1123 1046 52
1124 1046 52
1125 1046 34
1126 1046 34
1127 1046 34
1140 1046 22
1141 1046 22
1142 1046 22
1150 1046 34
1151 1046 34
1152 1046 34
1161 1046 22
1162 1046 22
1163 1046 22
1228 1046 22
1229 1046 22
1230 1046 22
1239 1046 34
1240 1046 34
1241 1046 34
1242 1046 22
1243 1046 22
1244 1046 22
1050 1047 52
1051 1047 52
1052 1047 52
1060 1047 34
1061 1047 34
1062 1047 33
1072 1047 51
1073 1047 52
1074 1047 52
1079 1047 34
1080 1047 34
1081 1047 34
1089 1047 52
1090 1047 52
1091 1047 52
1092 1047 34
1093 1047 34
1094 1047 34
1119 1047 34
1120 1047 34
1121 1047 34
1122 1047 52
1123 1047 52
1124 1047 52
1125 1047 34
1126 1047 34
1127 1047 34
1140 1047 22
1141 1047 22
1142 1047 22
1150 1047 34
1151 1047 34
1152 1047 34
1161 1047 22
1162 1047 22
1163 1047 22
1228 1047 22
1229 1047 22
1230 1047 22
1239 1047 34
1240 1047 34
1241 1047 34
1242 1047 22
1243 1047 22
1244 1047 22
1049 1048 58
1050 1048 58
1051 1048 58
1052 1048 58
1053 1048 58
1054 1048 58
1058 1048 37
1059 1048 37
1060 1048 37
1061 1048 37
1062 1048 37
1063 1048 37
1138 1048 24
1139 1048 24
1140 1048 24
1141 1048 24
1142 1048 24
1143 1048 24
1148 1048 38
1149 1048 38
1150 1048 38
1151 1048 38
1152 1048 38
1153 1048 38
1154 1048 38
1159 1048 26
1160 1048 26
1161 1048 26
1162 1048 26
1163 1048 26
1164 1048 26
1165 1048 26
1050 1049 58
1051 1049 58
1052 1049 58
1053 1049 58
1054 1049 58
1058 1049 37
1059 1049 37
1060 1049 37
1061 1049 37
1062 1049 37
1063 1049 37
1138 1049 24
1139 1049 24
1140 1049 24
1141 1049 24
1142 1049 24
1143 1049 24
1148 1049 38
1149 1049 38
1150 1049 38
1151 1049 38
1152 1049 38
1153 1049 38
1154 1049 38
1159 1049 26
1160 1049 26
1161 1049 26
1162 1049 26
1163 1049 26
1164 1049 26
1165 1049 26
1051 1050 85
1052 1050 85
1053 1050 58
1054 1050 58
1058 1050 37
1059 1050 37
1060 1050 55
1061 1050 55
1062 1050 54
1063 1050 37
1072 1050 33
1073 1050 34
1074 1050 34
1119 1050 22
1120 1050 22
1121 1050 22
1122 1050 34
1123 1050 34
1124 1050 34
1125 1050 22
1126 1050 22
1127 1050 22
1138 1050 24
1139 1050 24
1140 1050 36
1141 1050 36
1142 1050 36
1143 1050 24
1148 1050 38
1149 1050 38
1150 1050 56
1151 1050 56
1152 1050 56
1153 1050 38
1154 1050 38
1159 1050 26
1160 1050 26
1161 1050 38
1162 1050 38
1163 1050 38
1164 1050 26
1165 1050 26
1052 1051 85
1053 1051 58
1054 1051 58
1058 1051 37
1059 1051 37
1060 1051 55
1061 1051 55
1062 1051 54
1063 1051 37
1072 1051 33
1073 1051 34
1074 1051 34
1119 1051 22
1120 1051 22
1121 1051 22
1122 1051 34
1123 1051 34
1124 1051 34
1125 1051 22
1126 1051 22
1127 1051 22
1138 1051 24
1139 1051 24
1140 1051 36
1141 1051 36
1142 1051 36
1143 1051 24
1148 1051 38
1149 1051 38
1150 1051 56
1151 1051 56
1152 1051 56
1153 1051 38
1154 1051 38
1159 1051 26
1160 1051 26
1161 1051 38
1162 1051 38
1163 1051 38
1164 1051 26
1165 1051 26
1053 1052 58
1054 1052 58
1058 1052 37
1059 1052 37
1060 1052 55
1061 1052 55
1062 1052 54
1063 1052 37
1072 1052 33
1073 1052 34
1074 1052 34
1119 1052 22
1120 1052 22
1121 1052 22
1122 1052 34
1123 1052 34
1124 1052 34
1125 1052 22
1126 1052 22
1127 1052 22
1138 1052 24
1139 1052 24
1140 1052 36
1141 1052 36
1142 1052 36
1143 1052 24
1148 1052 38
1149 1052 38
1150 1052 56
1151 1052 56
1152 1052 56
1153 1052 38
1154 1052 38
1159 1052 26
1160 1052 26
1161 1052 38
1162 1052 38
1163 1052 38
1164 1052 26
1165 1052 26
1054 1053 84
1055 1053 10
1056 1053 32
1057 1053 34
1058 1053 58
1059 1053 37
1060 1053 41
1061 1053 37
1062 1053 37
1063 1053 58
1064 1053 10
1066 1053 24
1067 1053 29
1138 1053 36
1139 1053 24
1140 1053 26
1141 1053 24
1142 1053 24
1143 1053 35
1144 1053 14
1145 1053 15
1146 1053 16
1147 1053 18
1148 1053 38
1149 1053 38
1150 1053 38
1151 1053 38
1152 1053 38
1153 1053 52
1154 1053 53
1155 1053 14
1156 1053 18
1157 1053 17
1158 1053 17
1159 1053 26
1160 1053 26
1161 1053 26
1162 1053 26
1163 1053 26
1164 1053 26
1165 1053 26
1055 1054 10
1056 1054 33
1057 1054 35
1058 1054 58
1059 1054 37
1060 1054 41
1061 1054 37
1062 1054 37
1063 1054 58
1064 1054 10
1065 1054 24
1066 1054 25
1067 1054 30
1138 1054 37
1139 1054 24
1140 1054 26
1141 1054 24
1142 1054 24
1143 1054 36
1144 1054 14
1145 1054 16
1146 1054 17
1147 1054 19
1148 1054 38
1149 1054 38
1150 1054 38
1151 1054 38
1152 1054 38
1153 1054 53
1154 1054 54
1155 1054 14
1156 1054 19
1157 1054 18
1158 1054 18
1159 1054 26
1160 1054 26
1161 1054 26
1162 1054 26
1163 1054 26
1164 1054 26
1165 1054 26
1058 1055 10
1063 1055 10
1064 1055 10
1138 1055 10
1143 1055 10
1144 1055 10
1153 1055 10
1154 1055 10
1155 1055 10
1057 1056 33
1058 1056 25
1063 1056 25
1065 1056 24
1066 1056 25
1067 1056 27
1138 1056 15
1143 1056 14
1145 1056 14
1146 1056 15
1147 1056 17
1153 1056 17
1154 1056 18
1156 1056 17
1157 1056 16
1158 1056 18
1058 1057 25
1063 1057 25
1065 1057 24
1066 1057 25
1067 1057 27
1138 1057 15
1143 1057 14
1145 1057 14
1146 1057 15
1147 1057 17
1153 1057 19
1154 1057 20
1156 1057 17
1157 1057 16
1158 1057 18
1059 1058 37
1060 1058 41
1061 1058 37
1062 1058 37
1063 1058 58
1064 1058 10
1067 1058 28
1138 1058 35
1139 1058 24
1140 1058 26
1141 1058 24
1142 1058 24
1143 1058 34
1144 1058 14
1145 1058 14
1146 1058 15
1147 1058 17
1148 1058 24
1149 1058 24
1150 1058 24
1151 1058 24
1152 1058 24
1153 1058 36
1154 1058 37
1155 1058 14
1156 1058 17
1157 1058 16
1158 1058 15
1060 1059 37
1061 1059 37
1062 1059 37
1063 1059 37
1138 1059 24
1139 1059 24
1140 1059 24
1141 1059 24
1142 1059 24
1143 1059 24
1148 1059 24
1149 1059 24
1150 1059 24
1151 1059 24
1152 1059 24
1153 1059 24
1154 1059 24
1061 1060 55
1062 1060 54
1063 1060 41
1067 1060 17
1072 1060 33
1073 1060 34
1074 1060 34
1122 1060 22
1123 1060 22
1124 1060 22
1125 1060 22
1126 1060 22
1127 1060 22
1138 1060 26
1139 1060 24
1140 1060 38
1141 1060 36
1142 1060 36
1143 1060 26
1147 1060 10
1148 1060 24
1149 1060 24
1150 1060 36
1151 1060 36
1152 1060 36
1153 1060 26
1154 1060 26
1062 1061 54
1063 1061 37
1072 1061 33
1073 1061 34
1074 1061 34
1122 1061 22
1123 1061 22
1124 1061 22
1125 1061 22
1126 1061 22
1127 1061 22
1138 1061 24
1139 1061 24
1140 1061 36
1141 1061 36
1142 1061 36
1143 1061 24
1148 1061 24
1149 1061 24
1150 1061 36
1151 1061 36
1152 1061 36
1153 1061 24
1154 1061 24
1063 1062 37
1073 1062 33
1074 1062 33
1122 1062 21
1123 1062 21
1124 1062 21
1125 1062 21
1126 1062 21
1127 1062 21
1138 1062 24
1139 1062 24
1140 1062 35
1141 1062 35
1142 1062 35
1143 1062 24
1148 1062 24
1149 1062 24
1150 1062 35
1151 1062 35
1152 1062 35
1153 1062 24
1154 1062 24
1064 1063 10
1067 1063 28
1138 1063 35
1139 1063 24
1140 1063 26
1141 1063 24
1142 1063 24
1143 1063 34
1144 1063 14
1145 1063 14
1146 1063 15
1147 1063 17
1148 1063 24
1149 1063 24
1150 1063 24
1151 1063 24
1152 1063 24
1153 1063 36
1154 1063 37
1155 1063 14
1156 1063 17
1157 1063 16
1158 1063 15
1138 1064 10
1143 1064 10
1144 1064 10
1153 1064 10
1154 1064 10
1155 1064 10
1066 1065 24
1067 1065 24
1138 1065 12
1143 1065 11
1145 1065 11
1146 1065 12
1147 1065 14
1153 1065 13
1154 1065 14
1156 1065 14
1157 1065 13
1158 1065 14
1067 1066 25
1138 1066 13
1143 1066 12
1145 1066 12
1146 1066 13
1147 1066 15
1153 1066 14
1154 1066 15
1156 1066 15
1157 1066 14
1158 1066 15
1138 1067 17
1140 1067 10
1143 1067 16
1145 1067 14
1146 1067 15
1147 1067 19
1153 1067 18
1154 1067 19
1156 1067 17
1157 1067 16
1158 1067 17
1073 1072 51
1074 1072 51
1089 1072 34
1090 1072 34
1091 1072 34
1092 1072 34
1093 1072 34
1094 1072 34
1122 1072 33
1123 1072 33
1124 1072 33
1125 1072 33
1126 1072 33
1127 1072 33
1140 1072 21
1141 1072 21
1142 1072 21
1150 1072 21
1151 1072 21
1152 1072 21
1239 1072 22
1240 1072 22
1241 1072 22
1242 1072 22
1243 1072 22
1244 1072 22
1074 1073 52
1089 1073 34
1090 1073 34
1091 1073 34
1092 1073 34
1093 1073 34
1094 1073 34
1122 1073 34
1123 1073 34
1124 1073 34
1125 1073 34
1126 1073 34
1127 1073 34
1140 1073 22
1141 1073 22
1142 1073 22
1150 1073 22
1151 1073 22
1152 1073 22
1239 1073 22
1240 1073 22
1241 1073 22
1242 1073 22
1243 1073 22
1244 1073 22
1089 1074 34
1090 1074 34
1091 1074 34
1092 1074 34
1093 1074 34
1094 1074 34
1122 1074 34
1123 1074 34
1124 1074 34
1125 1074 34
1126 1074 34
1127 1074 34
1140 1074 22
1141 1074 22
1142 1074 22
1150 1074 22
1151 1074 22
1152 1074 22
1239 1074 22
1240 1074 22
1241 1074 22
1242 1074 22
1243 1074 22
1244 1074 22
1080 1079 88
1081 1079 88
1082 1079 61
1083 1079 61
1084 1079 61
1085 1079 61
1089 1079 58
1090 1079 58
1091 1079 58
1095 1079 40
1096 1079 40
1103 1079 40
1104 1079 40
1116 1079 22
1117 1079 22
1118 1079 22
1119 1079 34
1120 1079 34
1121 1079 34
1122 1079 22
1123 1079 22
1124 1079 22
1217 1079 38
1218 1079 38
1219 1079 38
1220 1079 26
1221 1079 25
1222 1079 26
1223 1079 26
1228 1079 58
1229 1079 57
1230 1079 58
1231 1079 40
1232 1079 40
1233 1079 40
1234 1079 40
1239 1079 38
1240 1079 38
1241 1079 38
1245 1079 26
1246 1079 26
1249 1079 26
1250 1079 26
1081 1080 88
1082 1080 61
1083 1080 61
1084 1080 61
1085 1080 61
1089 1080 58
1090 1080 58
1091 1080 58
1095 1080 40
1096 1080 40
1103 1080 40
1104 1080 40
1116 1080 22
1117 1080 22
1118 1080 22
1119 1080 34
1120 1080 34
1121 1080 34
1122 1080 22
1123 1080 22
1124 1080 22
1217 1080 38
1218 1080 38
1219 1080 38
1220 1080 26
1221 1080 25
1222 1080 26
1223 1080 26
1228 1080 58
1229 1080 57
1230 1080 58
1231 1080 40
1232 1080 40
1233 1080 40
1234 1080 40
1239 1080 38
1240 1080 38
1241 1080 38
1245 1080 26
1246 1080 26
1249 1080 26
1250 1080 26
1082 1081 61
1083 1081 61
1084 1081 61
1085 1081 61
1089 1081 58
1090 1081 58
1091 1081 58
1095 1081 40
1096 1081 40
1103 1081 40
1104 1081 40
1116 1081 22
1117 1081 22
1118 1081 22
1119 1081 34
1120 1081 34
1121 1081 34
1122 1081 22
1123 1081 22
1124 1081 22
1217 1081 38
1218 1081 38
1219 1081 38
1220 1081 26
1221 1081 25
1222 1081 26
1223 1081 26
1228 1081 58
1229 1081 57
1230 1081 58
1231 1081 40
1232 1081 40
1233 1081 40
1234 1081 40
1239 1081 38
1240 1081 38
1241 1081 38
1245 1081 26
1246 1081 26
1249 1081 26
1250 1081 26
1083 1082 61
1084 1082 61
1085 1082 61
1089 1082 40
1090 1082 40
1091 1082 40
1095 1082 40
1096 1082 40
1103 1082 40
1104 1082 40
1217 1082 26
1218 1082 26
1219 1082 26
1220 1082 26
1221 1082 25
1222 1082 26
1223 1082 26
1228 1082 40
1229 1082 39
1230 1082 40
1231 1082 40
1232 1082 40
1233 1082 40
1234 1082 40
1239 1082 26
1240 1082 26
1241 1082 26
1245 1082 26
1246 1082 26
1249 1082 26
1250 1082 26
1084 1083 61
1085 1083 61
1089 1083 40
1090 1083 40
1091 1083 40
1095 1083 40
1096 1083 40
1103 1083 40
1104 1083 40
1217 1083 26
1218 1083 26
1219 1083 26
1220 1083 26
1221 1083 25
1222 1083 26
1223 1083 26
1228 1083 40
1229 1083 39
1230 1083 40
1231 1083 40
1232 1083 40
1233 1083 40
1234 1083 40
1239 1083 26
1240 1083 26
1241 1083 26
1245 1083 26
1246 1083 26
1249 1083 26
1250 1083 26
1085 1084 89
1087 1084 35
1088 1084 38
1089 1084 40
1090 1084 40
1091 1084 40
1095 1084 40
1096 1084 40
1103 1084 59
1104 1084 59
1107 1084 25
1217 1084 26
1218 1084 26
1219 1084 26
1220 1084 26
1221 1084 25
1222 1084 34
1223 1084 35
1224 1084 12
1225 1084 15
1226 1084 14
1227 1084 13
1228 1084 40
1229 1084 39
1230 1084 40
1231 1084 40
1232 1084 40
1233 1084 51
1234 1084 51
1235 1084 17
1236 1084 23
1237 1084 23
1238 1084 23
1239 1084 26
1240 1084 26
1241 1084 26
1245 1084 26
1246 1084 26
1249 1084 37
1250 1084 36
1251 1084 12
1252 1084 14
1253 1084 15
1254 1084 15
1087 1085 35
1088 1085 38
1089 1085 40
1090 1085 40
1091 1085 40
1095 1085 40
1096 1085 40
1103 1085 59
1104 1085 59
1107 1085 25
1217 1085 26
1218 1085 26
1219 1085 26
1220 1085 26
1221 1085 25
1222 1085 34
1223 1085 35
1224 1085 12
1225 1085 15
1226 1085 14
1227 1085 13
1228 1085 40
1229 1085 39
1230 1085 40
1231 1085 40
1232 1085 40
1233 1085 51
1234 1085 51
1235 1085 17
1236 1085 23
1237 1085 23
1238 1085 23
1239 1085 26
1240 1085 26
1241 1085 26
1245 1085 26
1246 1085 26
1249 1085 37
1250 1085 36
1251 1085 12
1252 1085 14
1253 1085 15
1254 1085 15
1088 1087 37
1103 1087 26
1104 1087 25
1106 1087 23
1107 1087 26
1222 1087 10
1223 1087 11
1225 1087 11
1226 1087 10
1227 1087 11
1233 1087 18
1234 1087 18
1236 1087 19
1237 1087 19
1238 1087 22
1249 1087 16
1250 1087 15
1252 1087 13
1253 1087 14
1254 1087 16
1103 1088 26
1104 1088 25
1106 1088 23
1107 1088 26
1222 1088 13
1223 1088 14
1225 1088 14
1226 1088 13
1227 1088 14
1233 1088 21
1234 1088 21
1236 1088 22
1237 1088 22
1238 1088 25
1249 1088 16
1250 1088 15
1252 1088 13
1253 1088 14
1254 1088 16
1090 1089 85
1091 1089 85
1092 1089 55
1093 1089 55
1094 1089 55
1095 1089 58
1096 1089 58
1097 1089 37
1098 1089 37
1103 1089 58
1104 1089 58
1108 1089 37
1119 1089 22
1120 1089 22
1121 1089 22
1122 1089 34
1123 1089 34
1124 1089 34
1125 1089 22
1126 1089 22
1127 1089 22
1228 1089 38
1229 1089 38
1230 1089 38
1231 1089 26
1232 1089 26
1233 1089 26
1234 1089 26
1239 1089 56
1240 1089 56
1241 1089 56
1242 1089 36
1243 1089 36
1244 1089 36
1245 1089 38
1246 1089 38
1247 1089 24
1248 1089 24
1249 1089 38
1250 1089 38
1255 1089 24
1091 1090 85
1092 1090 55
1093 1090 55
1094 1090 55
1095 1090 58
1096 1090 58
1097 1090 37
1098 1090 37
1103 1090 58
1104 1090 58
1108 1090 37
1119 1090 22
1120 1090 22
1121 1090 22
1122 1090 34
1123 1090 34
1124 1090 34
1125 1090 22
1126 1090 22
1127 1090 22
1228 1090 38
1229 1090 38
1230 1090 38
1231 1090 26
1232 1090 26
1233 1090 26
1234 1090 26
1239 1090 56
1240 1090 56
1241 1090 56
1242 1090 36
1243 1090 36
1244 1090 36
1245 1090 38
1246 1090 38
1247 1090 24
1248 1090 24
1249 1090 38
1250 1090 38
1255 1090 24
1092 1091 55
1093 1091 55
1094 1091 55
1095 1091 58
1096 1091 58
1097 1091 37
1098 1091 37
1103 1091 58
1104 1091 58
1108 1091 37
1119 1091 22
1120 1091 22
1121 1091 22
1122 1091 34
1123 1091 34
1124 1091 34
1125 1091 22
1126 1091 22
1127 1091 22
1228 1091 38
1229 1091 38
1230 1091 38
1231 1091 26
1232 1091 26
1233 1091 26
1234 1091 26
1239 1091 56
1240 1091 56
1241 1091 56
1242 1091 36
1243 1091 36
1244 1091 36
1245 1091 38
1246 1091 38
1247 1091 24
1248 1091 24
1249 1091 38
1250 1091 38
1255 1091 24
1093 1092 55
1094 1092 55
1095 1092 37
1096 1092 37
1097 1092 42
1098 1092 37
1103 1092 43
1104 1092 43
1108 1092 42
1111 1092 17
1112 1092 19
1122 1092 22
1123 1092 22
1124 1092 22
1125 1092 22
1126 1092 22
1127 1092 22
1239 1092 36
1240 1092 36
1241 1092 36
1242 1092 40
1243 1092 36
1244 1092 36
1245 1092 24
1246 1092 24
1247 1092 27
1248 1092 24
1249 1092 28
1250 1092 28
1255 1092 27
1258 1092 10
1259 1092 12
1094 1093 55
1095 1093 37
1096 1093 37
1097 1093 37
1098 1093 37
1103 1093 37
1104 1093 37
1108 1093 37
1122 1093 22
1123 1093 22
1124 1093 22
1125 1093 22
1126 1093 22
1127 1093 22
1239 1093 36
1240 1093 36
1241 1093 36
1242 1093 36
1243 1093 36
1244 1093 36
1245 1093 24
1246 1093 24
1247 1093 24
1248 1093 24
1249 1093 24
1250 1093 24
1255 1093 24
1095 1094 37
1096 1094 37
1097 1094 37
1098 1094 37
1103 1094 37
1104 1094 37
1108 1094 37
1122 1094 22
1123 1094 22
1124 1094 22
1125 1094 22
1126 1094 22
1127 1094 22
1239 1094 36
1240 1094 36
1241 1094 36
1242 1094 36
1243 1094 36
1244 1094 36
1245 1094 24
1246 1094 24
1247 1094 24
1248 1094 24
1249 1094 24
1250 1094 24
1255 1094 24
1096 1095 58
1097 1095 37
1098 1095 37
1103 1095 58
1104 1095 58
1108 1095 37
1228 1095 26
1229 1095 26
1230 1095 26
1231 1095 26
1232 1095 26
1233 1095 26
1234 1095 26
1239 1095 38
1240 1095 38
1241 1095 38
1242 1095 24
1243 1095 24
1244 1095 24
1245 1095 38
1246 1095 38
1247 1095 24
1248 1095 24
1249 1095 38
1250 1095 38
1255 1095 24
1097 1096 37
1098 1096 37
1103 1096 58
1104 1096 58
1108 1096 37
1228 1096 26
1229 1096 26
1230 1096 26
1231 1096 26
1232 1096 26
1233 1096 26
1234 1096 26
1239 1096 38
1240 1096 38
1241 1096 38
1242 1096 24
1243 1096 24
1244 1096 24
1245 1096 38
1246 1096 38
1247 1096 24
1248 1096 24
1249 1096 38
1250 1096 38
1255 1096 24
1098 1097 37
1103 1097 58
1104 1097 57
1105 1097 10
1106 1097 24
1107 1097 25
1108 1097 58
1109 1097 10
1112 1097 28
1239 1097 24
1240 1097 24
1241 1097 24
1242 1097 27
1243 1097 24
1244 1097 24
1245 1097 24
1246 1097 24
1247 1097 35
1248 1097 24
1249 1097 37
1250 1097 36
1251 1097 14
1252 1097 16
1253 1097 17
1254 1097 15
1255 1097 35
1256 1097 14
1257 1097 15
1258 1097 17
1259 1097 17
1103 1098 37
1104 1098 37
1108 1098 37
1239 1098 24
1240 1098 24
1241 1098 24
1242 1098 24
1243 1098 24
1244 1098 24
1245 1098 24
1246 1098 24
1247 1098 24
1248 1098 24
1249 1098 24
1250 1098 24
1255 1098 24
1104 1103 90
1105 1103 10
1106 1103 38
1107 1103 41
1108 1103 58
1109 1103 10
1110 1103 25
1111 1103 28
1112 1103 30
1228 1103 26
1229 1103 26
1230 1103 26
1231 1103 26
1232 1103 26
1233 1103 35
1234 1103 35
1235 1103 10
1236 1103 18
1237 1103 18
1238 1103 16
1239 1103 38
1240 1103 38
1241 1103 38
1242 1103 28
1243 1103 24
1244 1103 24
1245 1103 38
1246 1103 38
1247 1103 37
1248 1103 24
1249 1103 59
1250 1103 58
1251 1103 21
1252 1103 26
1253 1103 27
1254 1103 26
1255 1103 37
1256 1103 14
1257 1103 17
1258 1103 19
1259 1103 19
1105 1104 10
1107 1104 40
1108 1104 57
1109 1104 10
1110 1104 24
1111 1104 27
1112 1104 29
1228 1104 26
1229 1104 26
1230 1104 26
1231 1104 26
1232 1104 26
1233 1104 34
1234 1104 34
1235 1104 10
1236 1104 17
1237 1104 17
1238 1104 15
1239 1104 38
1240 1104 38
1241 1104 38
1242 1104 28
1243 1104 24
1244 1104 24
1245 1104 38
1246 1104 38
1247 1104 36
1248 1104 24
1249 1104 58
1250 1104 57
1251 1104 21
1252 1104 25
1253 1104 26
1254 1104 25
1255 1104 36
1256 1104 14
1257 1104 16
1258 1104 18
1259 1104 18
1108 1105 10
1109 1105 10
1247 1105 10
1249 1105 10
1250 1105 10
1251 1105 10
1255 1105 10
1256 1105 10
1107 1106 38
1108 1106 24
1110 1106 24
1111 1106 24
1112 1106 26
1233 1106 11
1234 1106 11
1236 1106 13
1237 1106 13
1238 1106 13
1247 1106 14
1249 1106 23
1250 1106 22
1252 1106 20
1253 1106 21
1254 1106 23
1255 1106 14
1257 1106 14
1258 1106 14
1259 1106 16
1108 1107 25
1110 1107 25
1111 1107 25
1112 1107 27
1233 1107 14
1234 1107 14
1236 1107 16
1237 1107 16
1238 1107 16
1247 1107 15
1249 1107 26
1250 1107 25
1252 1107 23
1253 1107 24
1254 1107 26
1255 1107 15
1257 1107 15
1258 1107 15
1259 1107 17
1109 1108 10
1112 1108 28
1239 1108 24
1240 1108 24
1241 1108 24
1242 1108 27
1243 1108 24
1244 1108 24
1245 1108 24
1246 1108 24
1247 1108 35
1248 1108 24
1249 1108 37
1250 1108 36
1251 1108 14
1252 1108 16
1253 1108 17
1254 1108 15
1255 1108 35
1256 1108 14
1257 1108 15
1258 1108 17
1259 1108 17
1247 1109 10
1249 1109 10
1250 1109 10
1251 1109 10
1255 1109 10
1256 1109 10
1111 1110 25
1112 1110 25
1247 1110 13
1249 1110 15
1250 1110 14
1252 1110 14
1253 1110 15
1254 1110 15
1255 1110 13
1257 1110 13
1258 1110 13
1259 1110 15
1112 1111 28
1242 1111 10
1247 1111 15
1249 1111 17
1250 1111 16
1252 1111 14
1253 1111 15
1254 1111 15
1255 1111 15
1257 1111 13
1258 1111 15
1259 1111 17
1242 1112 12
1247 1112 17
1249 1112 19
1250 1112 18
1252 1112 16
1253 1112 17
1254 1112 17
1255 1112 17
1257 1112 15
1258 1112 17
1259 1112 19
1114 1113 51
1115 1113 51
1116 1113 51
1118 1113 51
1172 1113 33
1173 1113 33
1174 1113 33
1188 1113 33
1189 1113 33
1190 1113 33
1207 1113 33
1208 1113 33
1209 1113 33
1217 1113 33
1218 1113 33
1219 1113 33
1347 1113 21
1348 1113 21
1349 1113 21
1350 1113 21
1351 1113 21
1352 1113 21
1360 1113 33
1361 1113 33
1362 1113 33
1363 1113 33
1364 1113 33
1365 1113 33
1380 1113 21
1381 1113 21
1382 1113 21
1383 1113 21
1384 1113 21
1385 1113 21
1115 1114 52
1116 1114 52
1117 1114 50
1118 1114 52
1172 1114 34
1173 1114 34
1174 1114 34
1188 1114 34
1189 1114 34
1190 1114 34
1207 1114 34
1208 1114 34
1209 1114 34
1217 1114 34
1218 1114 34
1219 1114 34
1347 1114 22
1348 1114 22
1349 1114 22
1350 1114 22
1351 1114 22
1352 1114 22
1360 1114 34
1361 1114 34
1362 1114 34
1363 1114 34
1364 1114 34
1365 1114 33
1380 1114 22
1381 1114 22
1382 1114 22
1383 1114 22
1384 1114 22
1385 1114 22
1116 1115 52
1117 1115 50
1118 1115 52
1172 1115 34
1173 1115 34
1174 1115 34
1188 1115 34
1189 1115 34
1190 1115 34
1207 1115 34
1208 1115 34
1209 1115 34
1217 1115 34
1218 1115 34
1219 1115 34
1347 1115 22
1348 1115 22
1349 1115 22
1350 1115 22
1351 1115 22
1352 1115 22
1360 1115 34
1361 1115 34
1362 1115 34
1363 1115 34
1364 1115 34
1365 1115 33
1380 1115 22
1381 1115 22
1382 1115 22
1383 1115 22
1384 1115 22
1385 1115 22
1117 1116 76
1118 1116 79
1119 1116 52
1120 1116 52
1121 1116 51
1161 1116 34
1162 1116 34
1163 1116 34
1172 1116 52
1173 1116 52
1174 1116 52
1188 1116 34
1189 1116 34
1190 1116 34
1207 1116 34
1208 1116 34
1209 1116 34
1217 1116 52
1218 1116 52
1219 1116 52
1228 1116 34
1229 1116 34
1230 1116 34
1344 1116 22
1345 1116 22
1346 1116 22
1347 1116 34
1348 1116 34
1349 1116 34
1350 1116 22
1351 1116 22
1352 1116 22
1357 1116 33
1358 1116 34
1359 1116 34
1360 1116 52
1361 1116 51
1362 1116 52
1363 1116 34
1364 1116 34
1365 1116 33
1370 1116 22
1371 1116 22
1372 1116 22
1380 1116 22
1381 1116 22
1382 1116 22
1383 1116 34
1384 1116 34
1385 1116 34
1118 1117 76
1119 1117 51
1120 1117 51
1121 1117 50
1161 1117 33
1162 1117 33
1163 1117 33
1172 1117 49
1173 1117 49
1174 1117 49
1188 1117 32
1189 1117 32
1190 1117 32
1207 1117 32
1208 1117 32
1209 1117 32
1217 1117 49
1218 1117 49
1219 1117 49
1228 1117 33
1229 1117 33
1230 1117 33
1344 1117 21
1345 1117 21
1346 1117 21
1347 1117 31
1348 1117 31
1349 1117 31
1350 1117 20
1351 1117 20
1352 1117 20
1358 1117 33
1359 1117 33
1360 1117 49
1361 1117 48
1362 1117 49
1363 1117 32
1364 1117 32
1370 1117 21
1371 1117 21
1372 1117 21
1380 1117 20
1381 1117 20
1382 1117 20
1383 1117 31
1384 1117 31
1385 1117 31
1119 1118 52
1120 1118 52
1121 1118 51
1161 1118 34
1162 1118 34
1163 1118 34
1172 1118 52
1173 1118 52
1174 1118 52
1188 1118 34
1189 1118 34
1190 1118 34
1207 1118 34
1208 1118 34
1209 1118 34
1217 1118 52
1218 1118 52
1219 1118 52
1228 1118 34
1229 1118 34
1230 1118 34
1344 1118 22
1345 1118 22
1346 1118 22
1347 1118 34
1348 1118 34
1349 1118 34
1350 1118 22
1351 1118 22
1352 1118 22
1357 1118 33
1358 1118 34
1359 1118 34
1360 1118 52
1361 1118 51
1362 1118 52
1363 1118 34
1364 1118 34
1365 1118 33
1370 1118 22
1371 1118 22
1372 1118 22
1380 1118 22
1381 1118 22
1382 1118 22
1383 1118 34
1384 1118 34
1385 1118 34
1120 1119 79
1121 1119 78
1122 1119 52
1123 1119 52
1124 1119 52
1150 1119 34
1151 1119 34
1152 1119 34
1161 1119 52
1162 1119 52
1163 1119 52
1172 1119 34
1173 1119 34
1174 1119 34
1217 1119 34
1218 1119 34
1219 1119 34
1228 1119 52
1229 1119 52
1230 1119 52
1239 1119 34
1240 1119 34
1241 1119 34
1307 1119 22
1308 1119 22
1309 1119 22
1310 1119 34
1311 1119 34
1312 1119 34
1313 1119 22
1314 1119 22
1315 1119 22
1344 1119 34
1345 1119 34
1346 1119 34
1347 1119 22
1348 1119 22
1349 1119 22
1357 1119 51
1358 1119 52
1359 1119 52
1360 1119 34
1361 1119 33
1362 1119 34
1370 1119 34
1371 1119 34
1372 1119 34
1383 1119 22
1384 1119 22
1385 1119 22
1121 1120 78
1122 1120 52
1123 1120 52
1124 1120 52
1150 1120 34
1151 1120 34
1152 1120 34
1161 1120 52
1162 1120 52
1163 1120 52
1172 1120 34
1173 1120 34
1174 1120 34
1217 1120 34
1218 1120 34
1219 1120 34
1228 1120 52
1229 1120 52
1230 1120 52
1239 1120 34
1240 1120 34
1241 1120 34
1307 1120 22
1308 1120 22
1309 1120 22
1310 1120 34
1311 1120 34
1312 1120 34
1313 1120 22
1314 1120 22
1315 1120 22
1344 1120 34
1345 1120 34
1346 1120 34
1347 1120 22
1348 1120 22
1349 1120 22
1357 1120 51
1358 1120 52
1359 1120 52
1360 1120 34
1361 1120 33
1362 1120 34
1370 1120 34
1371 1120 34
1372 1120 34
1383 1120 22
1384 1120 22
1385 1120 22
1122 1121 52
1123 1121 52
1124 1121 52
1150 1121 34
1151 1121 34
1152 1121 34
1161 1121 51
1162 1121 51
1163 1121 51
1172 1121 33
1173 1121 33
1174 1121 33
1217 1121 33
1218 1121 33
1219 1121 33
1228 1121 51
1229 1121 51
1230 1121 51
1239 1121 34
1240 1121 34
1241 1121 34
1307 1121 22
1308 1121 22
1309 1121 22
1310 1121 34
1311 1121 34
1312 1121 34
1313 1121 22
1314 1121 22
1315 1121 22
1344 1121 33
1345 1121 33
1346 1121 33
1347 1121 21
1348 1121 21
1349 1121 21
1357 1121 50
1358 1121 51
1359 1121 51
1360 1121 33
1362 1121 33
1370 1121 33
1371 1121 33
1372 1121 33
1383 1121 21
1384 1121 21
1385 1121 21
1123 1122 79
1124 1122 79
1125 1122 52
1126 1122 52
1127 1122 52
1140 1122 34
1141 1122 34
1142 1122 34
1150 1122 52
1151 1122 52
1152 1122 52
1161 1122 34
1162 1122 34
1163 1122 34
1228 1122 34
1229 1122 34
1230 1122 34
1239 1122 52
1240 1122 52
1241 1122 52
1242 1122 34
1243 1122 34
1244 1122 34
1284 1122 22
1285 1122 22
1286 1122 22
1287 1122 34
1288 1122 34
1289 1122 34
1290 1122 22
1291 1122 22
1292 1122 22
1307 1122 34
1308 1122 34
1309 1122 34
1310 1122 52
1311 1122 52
1312 1122 52
1313 1122 34
1314 1122 34
1315 1122 34
1344 1122 22
1345 1122 22
1346 1122 22
1357 1122 34
1358 1122 34
1359 1122 34
1370 1122 22
1371 1122 22
1372 1122 22
1124 1123 79
1125 1123 52
1126 1123 52
1127 1123 52
1140 1123 34
1141 1123 34
1142 1123 34
1150 1123 52
1151 1123 52
1152 1123 52
1161 1123 34
1162 1123 34
1163 1123 34
1228 1123 34
1229 1123 34
1230 1123 34
1239 1123 52
1240 1123 52
1241 1123 52
1242 1123 34
1243 1123 34
1244 1123 34
1284 1123 22
1285 1123 22
1286 1123 22
1287 1123 34
1288 1123 34
1289 1123 34
1290 1123 22
1291 1123 22
1292 1123 22
1307 1123 34
1308 1123 34
1309 1123 34
1310 1123 52
1311 1123 52
1312 1123 52
1313 1123 34
1314 1123 34
1315 1123 34
1344 1123 22
1345 1123 22
1346 1123 22
1357 1123 34
1358 1123 34
1359 1123 34
1370 1123 22
1371 1123 22
1372 1123 22
1125 1124 52
1126 1124 52
1127 1124 52
1140 1124 34
1141 1124 34
1142 1124 34
1150 1124 52
1151 1124 52
1152 1124 52
1161 1124 34
1162 1124 34
1163 1124 34
1228 1124 34
1229 1124 34
1230 1124 34
1239 1124 52
1240 1124 52
1241 1124 52
1242 1124 34
1243 1124 34
1244 1124 34
1284 1124 22
1285 1124 22
1286 1124 22
1287 1124 34
1288 1124 34
1289 1124 34
1290 1124 22
1291 1124 22
1292 1124 22
1307 1124 34
1308 1124 34
1309 1124 34
1310 1124 52
1311 1124 52
1312 1124 52
1313 1124 34
1314 1124 34
1315 1124 34
1344 1124 22
1345 1124 22
1346 1124 22
1357 1124 34
1358 1124 34
1359 1124 34
1370 1124 22
1371 1124 22
1372 1124 22
1126 1125 52
1127 1125 52
1140 1125 34
1141 1125 34
1142 1125 34
1150 1125 34
1151 1125 34
1152 1125 34
1239 1125 34
1240 1125 34
1241 1125 34
1242 1125 34
1243 1125 34
1244 1125 34
1284 1125 22
1285 1125 22
1286 1125 22
1287 1125 34
1288 1125 34
1289 1125 34
1290 1125 22
1291 1125 22
1292 1125 22
1307 1125 22
1308 1125 22
1309 1125 22
1310 1125 34
1311 1125 34
1312 1125 34
1313 1125 22
1314 1125 22
1315 1125 22
1127 1126 52
1140 1126 34
1141 1126 34
1142 1126 34
1150 1126 34
1151 1126 34
1152 1126 34
1239 1126 34
1240 1126 34
1241 1126 34
1242 1126 34
1243 1126 34
1244 1126 34
1284 1126 22
1285 1126 22
1286 1126 22
1287 1126 34
1288 1126 34
1289 1126 34
1290 1126 22
1291 1126 22
1292 1126 22
1307 1126 22
1308 1126 22
1309 1126 22
1310 1126 34
1311 1126 34
1312 1126 34
1313 1126 22
1314 1126 22
1315 1126 22
1140 1127 34
1141 1127 34
1142 1127 34
1150 1127 34
1151 1127 34
1152 1127 34
1239 1127 34
1240 1127 34
1241 1127 34
1242 1127 34
1243 1127 34
1244 1127 34
1284 1127 22
1285 1127 22
1286 1127 22
1287 1127 34
1288 1127 34
1289 1127 34
1290 1127 22
1291 1127 22
1292 1127 22
1307 1127 22
1308 1127 22
1309 1127 22
1310 1127 34
1311 1127 34
1312 1127 34
1313 1127 22
1314 1127 22
1315 1127 22
1139 1138 37
1140 1138 40
1141 1138 37
1142 1138 37
1143 1138 56
1144 1138 18
1147 1138 27
1148 1138 37
1149 1138 37
1150 1138 37
1151 1138 37
1152 1138 37
1153 1138 57
1154 1138 57
1155 1138 18
1156 1138 26
1157 1138 25
1158 1138 24
1277 1138 35
1278 1138 24
1279 1138 35
1280 1138 10
1281 1138 12
1282 1138 13
1283 1138 17
1284 1138 26
1285 1138 24
1286 1138 24
1300 1138 24
1301 1138 24
1302 1138 36
1303 1138 37
1304 1138 10
1305 1138 15
1306 1138 15
1307 1138 24
1308 1138 24
1309 1138 24
1140 1139 37
1141 1139 37
1142 1139 37
1143 1139 37
1148 1139 37
1149 1139 37
1150 1139 37
1151 1139 37
1152 1139 37
1153 1139 37
1154 1139 37
1277 1139 24
1278 1139 24
1279 1139 24
1284 1139 24
1285 1139 24
1286 1139 24
1300 1139 24
1301 1139 24
1302 1139 24
1303 1139 24
1307 1139 24
1308 1139 24
1309 1139 24
1141 1140 55
1142 1140 55
1143 1140 40
1147 1140 16
1148 1140 37
1149 1140 37
1150 1140 55
1151 1140 55
1152 1140 55
1153 1140 40
1154 1140 40
1277 1140 26
1278 1140 24
1279 1140 26
1283 1140 10
1284 1140 38
1285 1140 36
1286 1140 36
1287 1140 22
1288 1140 22
1289 1140 22
1300 1140 24
1301 1140 24
1302 1140 26
1303 1140 26
1307 1140 36
1308 1140 36
1309 1140 36
1310 1140 22
1311 1140 22
1312 1140 22
1142 1141 55
1143 1141 37
1148 1141 37
1149 1141 37
1150 1141 55
1151 1141 55
1152 1141 55
1153 1141 37
1154 1141 37
1277 1141 24
1278 1141 24
1279 1141 24
1284 1141 36
1285 1141 36
1286 1141 36
1287 1141 22
1288 1141 22
1289 1141 22
1300 1141 24
1301 1141 24
1302 1141 24
1303 1141 24
1307 1141 36
1308 1141 36
1309 1141 36
1310 1141 22
1311 1141 22
1312 1141 22
1143 1142 37
1148 1142 37
1149 1142 37
1150 1142 55
1151 1142 55
1152 1142 55
1153 1142 37
1154 1142 37
1277 1142 24
1278 1142 24
1279 1142 24
1284 1142 36
1285 1142 36
1286 1142 36
1287 1142 22
1288 1142 22
1289 1142 22
1300 1142 24
1301 1142 24
1302 1142 24
1303 1142 24
1307 1142 36
1308 1142 36
1309 1142 36
1310 1142 22
1311 1142 22
1312 1142 22
1144 1143 17
1147 1143 26
1148 1143 37
1149 1143 37
1150 1143 37
1151 1143 37
1152 1143 37
1153 1143 56
1154 1143 56
1155 1143 17
1156 1143 25
1158 1143 23
1277 1143 34
1278 1143 24
1279 1143 34
1280 1143 10
1281 1143 11
1282 1143 12
1283 1143 16
1284 1143 26
1285 1143 24
1286 1143 24
1300 1143 24
1301 1143 24
1302 1143 35
1303 1143 36
1304 1143 10
1305 1143 14
1306 1143 14
1307 1143 24
1308 1143 24
1309 1143 24
1145 1144 13
1146 1144 14
1153 1144 19
1154 1144 20
1155 1144 20
1156 1144 16
1157 1144 15
1277 1144 14
1279 1144 14
1280 1144 10
1302 1144 14
1303 1144 14
1304 1144 10
1146 1145 25
1147 1145 23
1154 1145 25
1155 1145 13
1156 1145 25
1157 1145 25
1158 1145 23
1277 1145 14
1279 1145 14
1281 1145 11
1282 1145 12
1283 1145 14
1302 1145 15
1303 1145 16
1305 1145 14
1306 1145 14
1147 1146 24
1153 1146 25
1154 1146 26
1155 1146 14
1156 1146 26
1157 1146 26
1158 1146 24
1277 1146 15
1279 1146 15
1281 1146 12
1282 1146 13
1283 1146 15
1302 1146 16
1303 1146 17
1305 1146 15
1306 1146 15
1153 1147 28
1154 1147 29
1156 1147 26
1157 1147 25
1158 1147 26
1277 1147 17
1279 1147 17
1281 1147 14
1282 1147 15
1283 1147 19
1284 1147 10
1302 1147 18
1303 1147 19
1305 1147 17
1306 1147 17
1149 1148 58
1150 1148 58
1151 1148 58
1152 1148 58
1153 1148 58
1154 1148 58
1159 1148 40
1160 1148 40
1161 1148 40
1162 1148 40
1163 1148 40
1164 1148 40
1165 1148 40
1277 1148 24
1278 1148 24
1279 1148 24
1284 1148 24
1285 1148 24
1286 1148 24
1300 1148 38
1301 1148 38
1302 1148 38
1303 1148 38
1307 1148 38
1308 1148 38
1309 1148 38
1323 1148 26
1324 1148 26
1325 1148 26
1326 1148 26
1344 1148 26
1345 1148 26
1346 1148 26
1150 1149 58
1151 1149 58
1152 1149 58
1153 1149 58
1154 1149 58
1159 1149 40
1160 1149 40
1161 1149 40
1162 1149 40
1163 1149 40
1164 1149 40
1165 1149 40
1277 1149 24
1278 1149 24
1279 1149 24
1284 1149 24
1285 1149 24
1286 1149 24
1300 1149 38
1301 1149 38
1302 1149 38
1303 1149 38
1307 1149 38
1308 1149 38
1309 1149 38
1323 1149 26
1324 1149 26
1325 1149 26
1326 1149 26
1344 1149 26
1345 1149 26
1346 1149 26
1151 1150 85
1152 1150 85
1153 1150 58
1154 1150 58
1159 1150 40
1160 1150 40
1161 1150 58
1162 1150 58
1163 1150 58
1164 1150 40
1165 1150 40
1277 1150 24
1278 1150 24
1279 1150 24
1284 1150 36
1285 1150 36
1286 1150 36
1287 1150 22
1288 1150 22
1289 1150 22
1300 1150 38
1301 1150 38
1302 1150 38
1303 1150 38
1307 1150 56
1308 1150 56
1309 1150 56
1310 1150 34
1311 1150 34
1312 1150 34
1323 1150 26
1324 1150 26
1325 1150 26
1326 1150 26
1344 1150 38
1345 1150 38
1346 1150 38
1357 1150 22
1358 1150 22
1359 1150 22
1152 1151 85
1153 1151 58
1154 1151 58
1159 1151 40
1160 1151 40
1161 1151 58
1162 1151 58
1163 1151 58
1164 1151 40
1165 1151 40
1277 1151 24
1278 1151 24
1279 1151 24
1284 1151 36
1285 1151 36
1286 1151 36
1287 1151 22
1288 1151 22
1289 1151 22
1300 1151 38
1301 1151 38
1302 1151 38
1303 1151 38
1307 1151 56
1308 1151 56
1309 1151 56
1310 1151 34
1311 1151 34
1312 1151 34
1323 1151 26
1324 1151 26
1325 1151 26
1326 1151 26
1344 1151 38
1345 1151 38
1346 1151 38
1357 1151 22
1358 1151 22
1359 1151 22
1153 1152 58
1154 1152 58
1159 1152 40
1160 1152 40
1161 1152 58
1162 1152 58
1163 1152 58
1164 1152 40
1165 1152 40
1277 1152 24
1278 1152 24
1279 1152 24
1284 1152 36
1285 1152 36
1286 1152 36
1287 1152 22
1288 1152 22
1289 1152 22
1300 1152 38
1301 1152 38
1302 1152 38
1303 1152 38
1307 1152 56
1308 1152 56
1309 1152 56
1310 1152 34
1311 1152 34
1312 1152 34
1323 1152 26
1324 1152 26
1325 1152 26
1326 1152 26
1344 1152 38
1345 1152 38
1346 1152 38
1357 1152 22
1358 1152 22
1359 1152 22
1154 1153 82
1155 1153 19
1156 1153 28
1157 1153 27
1158 1153 28
1159 1153 40
1160 1153 40
1161 1153 40
1162 1153 40
1163 1153 40
1164 1153 40
1165 1153 40
1277 1153 36
1278 1153 24
1279 1153 36
1280 1153 10
1281 1153 13
1282 1153 14
1283 1153 18
1284 1153 26
1285 1153 24
1286 1153 24
1300 1153 38
1301 1153 38
1302 1153 52
1303 1153 53
1304 1153 10
1305 1153 17
1306 1153 19
1307 1153 38
1308 1153 38
1309 1153 38
1323 1153 26
1324 1153 26
1325 1153 28
1326 1153 27
1344 1153 26
1345 1153 26
1346 1153 26
1155 1154 20
1156 1154 29
1157 1154 28
1158 1154 29
1159 1154 40
1160 1154 40
1161 1154 40
1162 1154 40
1163 1154 40
1164 1154 40
1165 1154 40
1277 1154 37
1278 1154 24
1279 1154 37
1280 1154 10
1281 1154 14
1282 1154 15
1283 1154 19
1284 1154 26
1285 1154 24
1286 1154 24
1300 1154 38
1301 1154 38
1302 1154 53
1303 1154 54
1304 1154 10
1305 1154 18
1306 1154 20
1307 1154 38
1308 1154 38
1309 1154 38
1323 1154 26
1324 1154 26
1325 1154 28
1326 1154 27
1344 1154 26
1345 1154 26
1346 1154 26
1156 1155 16
1157 1155 15
1277 1155 14
1279 1155 14
1280 1155 10
1302 1155 14
1303 1155 14
1304 1155 10
1157 1156 28
1158 1156 27
1277 1156 17
1279 1156 17
1281 1156 14
1282 1156 15
1283 1156 17
1302 1156 18
1303 1156 19
1305 1156 17
1306 1156 17
1158 1157 26
1277 1157 16
1279 1157 16
1281 1157 13
1282 1157 14
1283 1157 16
1302 1157 17
1303 1157 18
1305 1157 16
1306 1157 16
1277 1158 15
1279 1158 15
1281 1158 14
1282 1158 15
1283 1158 17
1302 1158 17
1303 1158 18
1305 1158 18
1306 1158 18
1160 1159 61
1161 1159 61
1162 1159 61
1163 1159 61
1164 1159 61
1165 1159 61
1170 1159 40
1171 1159 40
1172 1159 40
1173 1159 40
1174 1159 40
1175 1159 40
1176 1159 40
1300 1159 26
1301 1159 26
1302 1159 26
1303 1159 26
1307 1159 26
1308 1159 26
1309 1159 26
1323 1159 40
1324 1159 40
1325 1159 40
1326 1159 40
1330 1159 26
1331 1159 26
1332 1159 26
1333 1159 26
1344 1159 40
1345 1159 40
1346 1159 40
1347 1159 26
1348 1159 26
1349 1159 26
1161 1160 61
1162 1160 61
1163 1160 61
1164 1160 61
1165 1160 61
1170 1160 40
1171 1160 40
1172 1160 40
1173 1160 40
1174 1160 40
1175 1160 40
1176 1160 40
1300 1160 26
1301 1160 26
1302 1160 26
1303 1160 26
1307 1160 26
1308 1160 26
1309 1160 26
1323 1160 40
1324 1160 40
1325 1160 40
1326 1160 40
1330 1160 26
1331 1160 26
1332 1160 26
1333 1160 26
1344 1160 40
1345 1160 40
1346 1160 40
1347 1160 26
1348 1160 26
1349 1160 26
1162 1161 88
1163 1161 88
1164 1161 61
1165 1161 61
1170 1161 40
1171 1161 40
1172 1161 58
1173 1161 58
1174 1161 58
1175 1161 40
1176 1161 40
1300 1161 26
1301 1161 26
1302 1161 26
1303 1161 26
1307 1161 38
1308 1161 38
1309 1161 38
1310 1161 22
1311 1161 22
1312 1161 22
1323 1161 40
1324 1161 40
1325 1161 40
1326 1161 40
1330 1161 26
1331 1161 26
1332 1161 26
1333 1161 26
1344 1161 58
1345 1161 58
1346 1161 58
1347 1161 38
1348 1161 38
1349 1161 38
1357 1161 33
1358 1161 34
1359 1161 34
1360 1161 22
1361 1161 21
1362 1161 22
1163 1162 88
1164 1162 61
1165 1162 61
1170 1162 40
1171 1162 40
1172 1162 58
1173 1162 58
1174 1162 58
1175 1162 40
1176 1162 40
1300 1162 26
1301 1162 26
1302 1162 26
1303 1162 26
1307 1162 38
1308 1162 38
1309 1162 38
1310 1162 22
1311 1162 22
1312 1162 22
1323 1162 40
1324 1162 40
1325 1162 40
1326 1162 40
1330 1162 26
1331 1162 26
1332 1162 26
1333 1162 26
1344 1162 58
1345 1162 58
1346 1162 58
1347 1162 38
1348 1162 38
1349 1162 38
1357 1162 33
1358 1162 34
1359 1162 34
1360 1162 22
1361 1162 21
1362 1162 22
1164 1163 61
1165 1163 61
1170 1163 40
1171 1163 40
1172 1163 58
1173 1163 58
1174 1163 58
1175 1163 40
1176 1163 40
1300 1163 26
1301 1163 26
1302 1163 26
1303 1163 26
1307 1163 38
1308 1163 38
1309 1163 38
1310 1163 22
1311 1163 22
1312 1163 22
1323 1163 40
1324 1163 40
1325 1163 40
1326 1163 40
1330 1163 26
1331 1163 26
1332 1163 26
1333 1163 26
1344 1163 58
1345 1163 58
1346 1163 58
1347 1163 38
1348 1163 38
1349 1163 38
1357 1163 33
1358 1163 34
1359 1163 34
1360 1163 22
1361 1163 21
1362 1163 22
1165 1164 61
1170 1164 40
1171 1164 40
1172 1164 40
1173 1164 40
1174 1164 40
1175 1164 40
1176 1164 40
1300 1164 26
1301 1164 26
1302 1164 26
1303 1164 26
1307 1164 26
1308 1164 26
1309 1164 26
1323 1164 40
1324 1164 40
1325 1164 40
1326 1164 40
1330 1164 26
1331 1164 26
1332 1164 26
1333 1164 26
1344 1164 40
1345 1164 40
1346 1164 40
1347 1164 26
1348 1164 26
1349 1164 26
1170 1165 40
1171 1165 40
1172 1165 40
1173 1165 40
1174 1165 40
1175 1165 40
1176 1165 40
1300 1165 26
1301 1165 26
1302 1165 26
1303 1165 26
1307 1165 26
1308 1165 26
1309 1165 26
1323 1165 40
1324 1165 40
1325 1165 40
1326 1165 40
1330 1165 26
1331 1165 26
1332 1165 26
1333 1165 26
1344 1165 40
1345 1165 40
1346 1165 40
1347 1165 26
1348 1165 26
1349 1165 26
1171 1170 58
1172 1170 58
1173 1170 58
1174 1170 58
1175 1170 58
1176 1170 58
1181 1170 37
1182 1170 37
1183 1170 37
1188 1170 37
1189 1170 37
1190 1170 37
1323 1170 26
1324 1170 26
1325 1170 26
1326 1170 26
1330 1170 38
1331 1170 38
1332 1170 38
1333 1170 38
1337 1170 24
1338 1170 24
1339 1170 24
1344 1170 26
1345 1170 26
1346 1170 26
1347 1170 38
1348 1170 38
1349 1170 38
1350 1170 24
1351 1170 24
1352 1170 24
1172 1171 58
1173 1171 58
1174 1171 58
1175 1171 58
1176 1171 58
1181 1171 37
1182 1171 37
1183 1171 37
1188 1171 37
1189 1171 37
1190 1171 37
1323 1171 26
1324 1171 26
1325 1171 26
1326 1171 26
1330 1171 38
1331 1171 38
1332 1171 38
1333 1171 38
1337 1171 24
1338 1171 24
1339 1171 24
1344 1171 26
1345 1171 26
1346 1171 26
1347 1171 38
1348 1171 38
1349 1171 38
1350 1171 24
1351 1171 24
1352 1171 24
1173 1172 85
1174 1172 85
1175 1172 58
1176 1172 58
1181 1172 37
1182 1172 37
1183 1172 37
1188 1172 55
1189 1172 55
1190 1172 55
1323 1172 26
1324 1172 26
1325 1172 26
1326 1172 26
1330 1172 38
1331 1172 38
1332 1172 38
1333 1172 38
1337 1172 24
1338 1172 24
1339 1172 24
1344 1172 38
1345 1172 38
1346 1172 38
1347 1172 56
1348 1172 56
1349 1172 56
1350 1172 36
1351 1172 36
1352 1172 36
1357 1172 21
1358 1172 22
1359 1172 22
1360 1172 34
1361 1172 33
1362 1172 34
1363 1172 22
1364 1172 22
1365 1172 21
1174 1173 85
1175 1173 58
1176 1173 58
1181 1173 37
1182 1173 37
1183 1173 37
1188 1173 55
1189 1173 55
1190 1173 55
1323 1173 26
1324 1173 26
1325 1173 26
1326 1173 26
1330 1173 38
1331 1173 38
1332 1173 38
1333 1173 38
1337 1173 24
1338 1173 24
1339 1173 24
1344 1173 38
1345 1173 38
1346 1173 38
1347 1173 56
1348 1173 56
1349 1173 56
1350 1173 36
1351 1173 36
1352 1173 36
1357 1173 21
1358 1173 22
1359 1173 22
1360 1173 34
1361 1173 33
1362 1173 34
1363 1173 22
1364 1173 22
1365 1173 21
1175 1174 58
1176 1174 58
1181 1174 37
1182 1174 37
1183 1174 37
1188 1174 55
1189 1174 55
1190 1174 55
1323 1174 26
1324 1174 26
1325 1174 26
1326 1174 26
1330 1174 38
1331 1174 38
1332 1174 38
1333 1174 38
1337 1174 24
1338 1174 24
1339 1174 24
1344 1174 38
1345 1174 38
1346 1174 38
1347 1174 56
1348 1174 56
1349 1174 56
1350 1174 36
1351 1174 36
1352 1174 36
1357 1174 21
1358 1174 22
1359 1174 22
1360 1174 34
1361 1174 33
1362 1174 34
1363 1174 22
1364 1174 22
1365 1174 21
1176 1175 76
1177 1175 17
1180 1175 23
1181 1175 55
1182 1175 37
1183 1175 55
1184 1175 17
1185 1175 22
1187 1175 26
1188 1175 40
1189 1175 37
1190 1175 37
1323 1175 26
1324 1175 26
1325 1175 27
1326 1175 27
1330 1175 38
1331 1175 38
1332 1175 48
1333 1175 49
1334 1175 10
1335 1175 12
1336 1175 16
1337 1175 33
1338 1175 24
1339 1175 34
1340 1175 10
1341 1175 11
1342 1175 12
1343 1175 16
1344 1175 26
1345 1175 26
1346 1175 26
1347 1175 38
1348 1175 38
1349 1175 38
1350 1175 27
1351 1175 24
1352 1175 24
1177 1176 18
1178 1176 24
1180 1176 24
1181 1176 56
1182 1176 37
1183 1176 56
1184 1176 18
1186 1176 26
1187 1176 27
1188 1176 41
1189 1176 37
1190 1176 37
1323 1176 26
1324 1176 26
1325 1176 27
1326 1176 27
1330 1176 38
1331 1176 38
1332 1176 49
1333 1176 50
1334 1176 10
1335 1176 13
1336 1176 17
1337 1176 34
1338 1176 24
1339 1176 35
1340 1176 10
1341 1176 12
1342 1176 13
1343 1176 17
1344 1176 26
1345 1176 26
1346 1176 26
1347 1176 38
1348 1176 38
1349 1176 38
1350 1176 28
1351 1176 24
1352 1176 24
1178 1177 14
1179 1177 14
1181 1177 18
1183 1177 18
1184 1177 20
1185 1177 13
1186 1177 14
1332 1177 14
1333 1177 14
1334 1177 10
1337 1177 14
1339 1177 14
1340 1177 10
1179 1178 25
1180 1178 24
1183 1178 24
1184 1178 14
1185 1178 24
1186 1178 25
1187 1178 24
1332 1178 15
1333 1178 16
1335 1178 13
1336 1178 15
1337 1178 14
1339 1178 15
1341 1178 12
1342 1178 12
1343 1178 15
1180 1179 24
1181 1179 24
1183 1179 24
1184 1179 14
1185 1179 24
1186 1179 25
1187 1179 24
1332 1179 15
1333 1179 16
1335 1179 13
1336 1179 15
1337 1179 14
1339 1179 15
1341 1179 12
1342 1179 12
1343 1179 15
1181 1180 24
1183 1180 24
1185 1180 23
1186 1180 24
1187 1180 26
1332 1180 15
1333 1180 16
1335 1180 15
1336 1180 17
1337 1180 14
1339 1180 15
1341 1180 14
1342 1180 14
1343 1180 17
1182 1181 37
1183 1181 56
1184 1181 18
1186 1181 26
1187 1181 27
1188 1181 41
1189 1181 37
1190 1181 37
1330 1181 24
1331 1181 24
1332 1181 35
1333 1181 36
1334 1181 10
1335 1181 13
1336 1181 15
1337 1181 34
1338 1181 24
1339 1181 35
1340 1181 10
1341 1181 12
1342 1181 13
1343 1181 17
1347 1181 24
1348 1181 24
1349 1181 24
1350 1181 28
1351 1181 24
1352 1181 24
1183 1182 37
1188 1182 37
1189 1182 37
1190 1182 37
1330 1182 24
1331 1182 24
1332 1182 24
1333 1182 24
1337 1182 24
1338 1182 24
1339 1182 24
1347 1182 24
1348 1182 24
1349 1182 24
1350 1182 24
1351 1182 24
1352 1182 24
1184 1183 18
1187 1183 27
1188 1183 40
1189 1183 37
1190 1183 37
1330 1183 24
1331 1183 24
1332 1183 35
1333 1183 36
1334 1183 10
1335 1183 13
1336 1183 15
1337 1183 34
1338 1183 24
1339 1183 35
1340 1183 10
1341 1183 12
1342 1183 13
1343 1183 17
1347 1183 24
1348 1183 24
1349 1183 24
1350 1183 27
1351 1183 24
1352 1183 24
1185 1184 13
1186 1184 14
1332 1184 14
1333 1184 14
1334 1184 10
1337 1184 14
1339 1184 14
1340 1184 10
1186 1185 24
1187 1185 23
1332 1185 14
1333 1185 15
1335 1185 12
1336 1185 14
1337 1185 13
1339 1185 14
1341 1185 11
1342 1185 11
1343 1185 14
1187 1186 26
1188 1186 14
1332 1186 17
1333 1186 18
1335 1186 13
1336 1186 15
1337 1186 16
1339 1186 17
1341 1186 12
1342 1186 13
1343 1186 17
1350 1186 10
1188 1187 17
1332 1187 17
1333 1187 18
1335 1187 15
1336 1187 17
1337 1187 16
1339 1187 17
1341 1187 14
1342 1187 15
1343 1187 19
1350 1187 12
1189 1188 55
1190 1188 55
1330 1188 24
1331 1188 24
1332 1188 27
1333 1188 27
1337 1188 27
1338 1188 24
1339 1188 27
1343 1188 11
1347 1188 36
1348 1188 36
1349 1188 36
1350 1188 39
1351 1188 36
1352 1188 36
1360 1188 22
1361 1188 22
1362 1188 22
1363 1188 22
1364 1188 22
1365 1188 21
1190 1189 55
1330 1189 24
1331 1189 24
1332 1189 24
1333 1189 24
1337 1189 24
1338 1189 24
1339 1189 24
1347 1189 36
1348 1189 36
1349 1189 36
1350 1189 36
1351 1189 36
1352 1189 36
1360 1189 22
1361 1189 22
1362 1189 22
1363 1189 22
1364 1189 22
1365 1189 21
1330 1190 24
1331 1190 24
1332 1190 24
1333 1190 24
1337 1190 24
1338 1190 24
1339 1190 24
1347 1190 36
1348 1190 36
1349 1190 36
1350 1190 36
1351 1190 36
1352 1190 36
1360 1190 22
1361 1190 22
1362 1190 22
1363 1190 22
1364 1190 22
1365 1190 21
1208 1207 55
1209 1207 55
1210 1207 41
1211 1207 37
1212 1207 40
1215 1207 16
1216 1207 17
1217 1207 55
1218 1207 55
1219 1207 55
1220 1207 37
1221 1207 37
1222 1207 41
1223 1207 41
1360 1207 22
1361 1207 22
1362 1207 22
1363 1207 22
1364 1207 22
1365 1207 21
1380 1207 39
1381 1207 36
1382 1207 36
1383 1207 36
1384 1207 36
1385 1207 36
1386 1207 27
1387 1207 24
1388 1207 24
1389 1207 24
1390 1207 27
1394 1207 11
1399 1207 27
1400 1207 27
1209 1208 55
1210 1208 37
1211 1208 37
1212 1208 37
1217 1208 55
1218 1208 55
1219 1208 55
1220 1208 37
1221 1208 37
1222 1208 37
1223 1208 37
1360 1208 22
1361 1208 22
1362 1208 22
1363 1208 22
1364 1208 22
1365 1208 21
1380 1208 36
1381 1208 36
1382 1208 36
1383 1208 36
1384 1208 36
1385 1208 36
1386 1208 24
1387 1208 24
1388 1208 24
1389 1208 24
1390 1208 24
1399 1208 24
1400 1208 24
1210 1209 37
1211 1209 37
1212 1209 37
1217 1209 55
1218 1209 55
1219 1209 55
1220 1209 37
1221 1209 37
1222 1209 37
1223 1209 37
1360 1209 22
1361 1209 22
1362 1209 22
1363 1209 22
1364 1209 22
1365 1209 21
1380 1209 36
1381 1209 36
1382 1209 36
1383 1209 36
1384 1209 36
1385 1209 36
1386 1209 24
1387 1209 24
1388 1209 24
1389 1209 24
1390 1209 24
1399 1209 24
1400 1209 24
1211 1210 37
1212 1210 57
1213 1210 19
1215 1210 29
1216 1210 28
1217 1210 37
1218 1210 37
1219 1210 37
1220 1210 37
1221 1210 37
1222 1210 57
1223 1210 58
1224 1210 19
1225 1210 27
1226 1210 26
1227 1210 25
1380 1210 27
1381 1210 24
1382 1210 24
1383 1210 24
1384 1210 24
1385 1210 24
1386 1210 36
1387 1210 24
1388 1210 24
1389 1210 24
1390 1210 36
1391 1210 10
1392 1210 14
1393 1210 14
1394 1210 18
1399 1210 38
1400 1210 38
1401 1210 10
1402 1210 16
1403 1210 16
1212 1211 37
1217 1211 37
1218 1211 37
1219 1211 37
1220 1211 37
1221 1211 37
1222 1211 37
1223 1211 37
1380 1211 24
1381 1211 24
1382 1211 24
1383 1211 24
1384 1211 24
1385 1211 24
1386 1211 24
1387 1211 24
1388 1211 24
1389 1211 24
1390 1211 24
1399 1211 24
1400 1211 24
1213 1212 18
1216 1212 27
1217 1212 37
1218 1212 37
1219 1212 37
1220 1212 37
1221 1212 37
1222 1212 56
1223 1212 57
1224 1212 18
1225 1212 26
1226 1212 25
1227 1212 24
1380 1212 26
1381 1212 24
1382 1212 24
1383 1212 24
1384 1212 24
1385 1212 24
1386 1212 35
1387 1212 24
1388 1212 24
1389 1212 24
1390 1212 35
1391 1212 10
1392 1212 13
1393 1212 13
1394 1212 17
1399 1212 37
1400 1212 37
1401 1212 10
1402 1212 15
1403 1212 15
1214 1213 14
1215 1213 15
1222 1213 19
1223 1213 20
1224 1213 20
1225 1213 16
1226 1213 15
1386 1213 14
1390 1213 14
1391 1213 10
1399 1213 14
1400 1213 14
1401 1213 10
1215 1214 26
1216 1214 24
1222 1214 25
1223 1214 26
1224 1214 14
1225 1214 26
1226 1214 25
1227 1214 24
1386 1214 15
1390 1214 15
1392 1214 13
1393 1214 13
1394 1214 15
1399 1214 17
1400 1214 17
1402 1214 15
1403 1214 15
1216 1215 28
1222 1215 29
1223 1215 30
1224 1215 15
1225 1215 27
1226 1215 26
1227 1215 25
1380 1215 10
1386 1215 18
1390 1215 18
1392 1215 14
1393 1215 14
1394 1215 18
1399 1215 20
1400 1215 20
1402 1215 16
1403 1215 16
1222 1216 28
1223 1216 29
1225 1216 26
1226 1216 25
1227 1216 26
1380 1216 11
1386 1216 17
1390 1216 17
1392 1216 15
1393 1216 15
1394 1216 19
1399 1216 19
1400 1216 19
1402 1216 17
1403 1216 17
1218 1217 85
1219 1217 85
1220 1217 58
1221 1217 57
1222 1217 58
1223 1217 58
1228 1217 58
1229 1217 57
1230 1217 58
1231 1217 40
1232 1217 40
1233 1217 40
1234 1217 40
1357 1217 21
1358 1217 22
1359 1217 22
1360 1217 34
1361 1217 33
1362 1217 34
1363 1217 22
1364 1217 22
1365 1217 21
1370 1217 38
1371 1217 38
1372 1217 38
1373 1217 26
1374 1217 26
1375 1217 26
1376 1217 26
1380 1217 36
1381 1217 36
1382 1217 36
1383 1217 56
1384 1217 56
1385 1217 56
1386 1217 24
1387 1217 24
1388 1217 38
1389 1217 38
1390 1217 24
1399 1217 38
1400 1217 38
1219 1218 85
1220 1218 58
1221 1218 57
1222 1218 58
1223 1218 58
1228 1218 58
1229 1218 57
1230 1218 58
1231 1218 40
1232 1218 40
1233 1218 40
1234 1218 40
1357 1218 21
1358 1218 22
1359 1218 22
1360 1218 34
1361 1218 33
1362 1218 34
1363 1218 22
1364 1218 22
1365 1218 21
1370 1218 38
1371 1218 38
1372 1218 38
1373 1218 26
1374 1218 26
1375 1218 26
1376 1218 26
1380 1218 36
1381 1218 36
1382 1218 36
1383 1218 56
1384 1218 56
1385 1218 56
1386 1218 24
1387 1218 24
1388 1218 38
1389 1218 38
1390 1218 24
1399 1218 38
1400 1218 38
1220 1219 58
1221 1219 57
1222 1219 58
1223 1219 58
1228 1219 58
1229 1219 57
1230 1219 58
1231 1219 40
1232 1219 40
1233 1219 40
1234 1219 40
1357 1219 21
1358 1219 22
1359 1219 22
1360 1219 34
1361 1219 33
1362 1219 34
1363 1219 22
1364 1219 22
1365 1219 21
1370 1219 38
1371 1219 38
1372 1219 38
1373 1219 26
1374 1219 26
1375 1219 26
1376 1219 26
1380 1219 36
1381 1219 36
1382 1219 36
1383 1219 56
1384 1219 56
1385 1219 56
1386 1219 24
1387 1219 24
1388 1219 38
1389 1219 38
1390 1219 24
1399 1219 38
1400 1219 38
1221 1220 57
1222 1220 58
1223 1220 58
1228 1220 40
1229 1220 39
1230 1220 40
1231 1220 40
1232 1220 40
1233 1220 40
1234 1220 40
1370 1220 26
1371 1220 26
1372 1220 26
1373 1220 26
1374 1220 26
1375 1220 26
1376 1220 26
1380 1220 24
1381 1220 24
1382 1220 24
1383 1220 38
1384 1220 38
1385 1220 38
1386 1220 24
1387 1220 24
1388 1220 38
1389 1220 38
1390 1220 24
1399 1220 38
1400 1220 38
1222 1221 57
1223 1221 57
1228 1221 39
1230 1221 39
1231 1221 39
1232 1221 39
1233 1221 39
1234 1221 39
1370 1221 25
1371 1221 25
1372 1221 25
1373 1221 25
1374 1221 25
1375 1221 25
1376 1221 25
1380 1221 24
1381 1221 24
1382 1221 24
1383 1221 37
1384 1221 37
1385 1221 37
1386 1221 24
1387 1221 24
1388 1221 37
1389 1221 37
1390 1221 24
1399 1221 37
1400 1221 37
1223 1222 85
1224 1222 26
1225 1222 37
1227 1222 36
1228 1222 40
1229 1222 39
1230 1222 40
1231 1222 40
1232 1222 40
1233 1222 51
1234 1222 51
1235 1222 11
1238 1222 21
1370 1222 26
1371 1222 26
1372 1222 26
1373 1222 26
1374 1222 26
1375 1222 34
1376 1222 34
1378 1222 10
1379 1222 13
1380 1222 27
1381 1222 24
1382 1222 24
1383 1222 38
1384 1222 38
1385 1222 38
1386 1222 36
1387 1222 24
1388 1222 38
1389 1222 38
1390 1222 36
1391 1222 10
1392 1222 14
1393 1222 14
1394 1222 18
1399 1222 55
1400 1222 55
1401 1222 10
1402 1222 21
1403 1222 22
1224 1223 27
1225 1223 38
1226 1223 37
1227 1223 37
1228 1223 40
1229 1223 39
1230 1223 40
1231 1223 40
1232 1223 40
1233 1223 51
1234 1223 51
1235 1223 12
1238 1223 22
1370 1223 26
1371 1223 26
1372 1223 26
1373 1223 26
1374 1223 26
1375 1223 35
1376 1223 35
1378 1223 11
1379 1223 14
1380 1223 27
1381 1223 24
1382 1223 24
1383 1223 38
1384 1223 38
1385 1223 38
1386 1223 37
1387 1223 24
1388 1223 38
1389 1223 38
1390 1223 37
1391 1223 10
1392 1223 15
1393 1223 15
1394 1223 19
1399 1223 56
1400 1223 56
1401 1223 10
1402 1223 22
1403 1223 23
1225 1224 23
1226 1224 22
1233 1224 13
1234 1224 13
1235 1224 14
1236 1224 14
1237 1224 14
1375 1224 12
1376 1224 12
1386 1224 14
1390 1224 14
1391 1224 10
1399 1224 21
1400 1224 21
1401 1224 10
1226 1225 39
1227 1225 35
1235 1225 14
1236 1225 21
1237 1225 21
1238 1225 22
1375 1225 15
1376 1225 15
1378 1225 11
1379 1225 14
1386 1225 17
1390 1225 17
1392 1225 15
1393 1225 15
1394 1225 17
1399 1225 26
1400 1225 26
1402 1225 22
1403 1225 23
1227 1226 34
1235 1226 13
1236 1226 21
1237 1226 21
1238 1226 21
1375 1226 14
1376 1226 14
1378 1226 10
1379 1226 13
1386 1226 16
1390 1226 16
1392 1226 14
1393 1226 14
1394 1226 16
1399 1226 25
1400 1226 25
1402 1226 21
1403 1226 22
1233 1227 20
1234 1227 20
1238 1227 22
1375 1227 13
1376 1227 13
1378 1227 11
1379 1227 14
1386 1227 15
1390 1227 15
1392 1227 15
1393 1227 15
1394 1227 17
1399 1227 23
1400 1227 23
1402 1227 22
1403 1227 23
1229 1228 87
1230 1228 88
1231 1228 61
1232 1228 61
1233 1228 61
1234 1228 61
1239 1228 58
1240 1228 58
1241 1228 58
1245 1228 40
1246 1228 40
1249 1228 40
1250 1228 40
1310 1228 22
1311 1228 22
1312 1228 22
1313 1228 38
1314 1228 38
1315 1228 36
1316 1228 26
1317 1228 26
1318 1228 26
1319 1228 26
1357 1228 33
1358 1228 34
1359 1228 34
1360 1228 22
1361 1228 21
1362 1228 22
1370 1228 58
1371 1228 58
1372 1228 58
1373 1228 40
1374 1228 40
1375 1228 39
1376 1228 39
1383 1228 38
1384 1228 38
1385 1228 38
1388 1228 26
1389 1228 26
1399 1228 26
1400 1228 26
1230 1229 87
1231 1229 60
1232 1229 60
1233 1229 60
1234 1229 60
1239 1229 58
1240 1229 58
1241 1229 58
1245 1229 40
1246 1229 40
1249 1229 40
1250 1229 40
1310 1229 22
1311 1229 22
1312 1229 22
1313 1229 38
1314 1229 38
1315 1229 36
1316 1229 26
1317 1229 26
1318 1229 26
1319 1229 26
1357 1229 33
1358 1229 34
1359 1229 34
1360 1229 22
1361 1229 21
1362 1229 22
1370 1229 57
1371 1229 57
1372 1229 57
1373 1229 39
1374 1229 39
1375 1229 38
1376 1229 38
1383 1229 37
1384 1229 37
1385 1229 37
1388 1229 25
1389 1229 25
1399 1229 25
1400 1229 25
1231 1230 61
1232 1230 61
1233 1230 61
1234 1230 61
1239 1230 58
1240 1230 58
1241 1230 58
1245 1230 40
1246 1230 40
1249 1230 40
1250 1230 40
1310 1230 22
1311 1230 22
1312 1230 22
1313 1230 38
1314 1230 38
1315 1230 36
1316 1230 26
1317 1230 26
1318 1230 26
1319 1230 26
1357 1230 33
1358 1230 34
1359 1230 34
1360 1230 22
1361 1230 21
1362 1230 22
1370 1230 58
1371 1230 58
1372 1230 58
1373 1230 40
1374 1230 40
1375 1230 39
1376 1230 39
1383 1230 38
1384 1230 38
1385 1230 38
1388 1230 26
1389 1230 26
1399 1230 26
1400 1230 26
1232 1231 61
1233 1231 61
1234 1231 61
1239 1231 40
1240 1231 40
1241 1231 40
1245 1231 40
1246 1231 40
1249 1231 40
1250 1231 40
1313 1231 26
1314 1231 26
1315 1231 24
1316 1231 26
1317 1231 26
1318 1231 26
1319 1231 26
1370 1231 40
1371 1231 40
1372 1231 40
1373 1231 40
1374 1231 40
1375 1231 39
1376 1231 39
1383 1231 26
1384 1231 26
1385 1231 26
1388 1231 26
1389 1231 26
1399 1231 26
1400 1231 26
1233 1232 61
1234 1232 61
1239 1232 40
1240 1232 40
1241 1232 40
1245 1232 40
1246 1232 40
1249 1232 40
1250 1232 40
1313 1232 26
1314 1232 26
1315 1232 24
1316 1232 26
1317 1232 26
1318 1232 26
1319 1232 26
1370 1232 40
1371 1232 40
1372 1232 40
1373 1232 40
1374 1232 40
1375 1232 39
1376 1232 39
1383 1232 26
1384 1232 26
1385 1232 26
1388 1232 26
1389 1232 26
1399 1232 26
1400 1232 26
1234 1233 80
1236 1233 32
1237 1233 32
1238 1233 33
1239 1233 40
1240 1233 40
1241 1233 40
1245 1233 40
1246 1233 40
1249 1233 53
1250 1233 53
1251 1233 13
1254 1233 22
1313 1233 26
1314 1233 26
1315 1233 24
1316 1233 26
1317 1233 26
1318 1233 35
1319 1233 34
1321 1233 11
1322 1233 14
1370 1233 40
1371 1233 40
1372 1233 40
1373 1233 40
1374 1233 40
1375 1233 50
1376 1233 50
1378 1233 18
1379 1233 21
1383 1233 26
1384 1233 26
1385 1233 26
1388 1233 26
1389 1233 26
1399 1233 34
1400 1233 34
1402 1233 12
1403 1233 13
1236 1234 32
1237 1234 32
1238 1234 33
1239 1234 40
1240 1234 40
1241 1234 40
1245 1234 40
1246 1234 40
1249 1234 53
1250 1234 53
1251 1234 13
1254 1234 22
1313 1234 26
1314 1234 26
1315 1234 24
1316 1234 26
1317 1234 26
1318 1234 35
1319 1234 34
1321 1234 11
1322 1234 14
1370 1234 40
1371 1234 40
1372 1234 40
1373 1234 40
1374 1234 40
1375 1234 50
1376 1234 50
1378 1234 18
1379 1234 21
1383 1234 26
1384 1234 26
1385 1234 26
1388 1234 26
1389 1234 26
1399 1234 34
1400 1234 34
1402 1234 12
1403 1234 13
1236 1235 21
1237 1235 21
1249 1235 14
1250 1235 13
1251 1235 14
1252 1235 13
1253 1235 14
1318 1235 10
1319 1235 10
1375 1235 17
1376 1235 17
1399 1235 10
1400 1235 10
1237 1236 37
1238 1236 34
1249 1236 26
1250 1236 25
1251 1236 16
1252 1236 23
1253 1236 24
1254 1236 24
1318 1236 18
1319 1236 17
1321 1236 13
1322 1236 16
1375 1236 23
1376 1236 23
1378 1236 19
1379 1236 22
1399 1236 14
1400 1236 14
1402 1236 11
1403 1236 12
1238 1237 34
1249 1237 26
1250 1237 25
1251 1237 16
1252 1237 23
1253 1237 24
1254 1237 24
1318 1237 18
1319 1237 17
1321 1237 13
1322 1237 16
1375 1237 23
1376 1237 23
1378 1237 19
1379 1237 22
1399 1237 14
1400 1237 14
1402 1237 11
1403 1237 12
1249 1238 24
1250 1238 23
1252 1238 21
1253 1238 22
1254 1238 24
1318 1238 16
1319 1238 15
1321 1238 13
1322 1238 16
1375 1238 23
1376 1238 23
1378 1238 22
1379 1238 25
1399 1238 15
1400 1238 15
1402 1238 14
1403 1238 15
1240 1239 85
1241 1239 85
1242 1239 55
1243 1239 55
1244 1239 55
1245 1239 58
1246 1239 58
1247 1239 37
1248 1239 37
1249 1239 58
1250 1239 58
1255 1239 37
1287 1239 22
1288 1239 22
1289 1239 22
1290 1239 36
1291 1239 36
1292 1239 36
1293 1239 24
1294 1239 24
1295 1239 24
1310 1239 34
1311 1239 34
1312 1239 34
1313 1239 56
1314 1239 56
1315 1239 54
1316 1239 38
1317 1239 38
1318 1239 38
1319 1239 38
1357 1239 22
1358 1239 22
1359 1239 22
1370 1239 38
1371 1239 38
1372 1239 38
1373 1239 26
1374 1239 26
1375 1239 25
1376 1239 25
1241 1240 85
1242 1240 55
1243 1240 55
1244 1240 55
1245 1240 58
1246 1240 58
1247 1240 37
1248 1240 37
1249 1240 58
1250 1240 58
1255 1240 37
1287 1240 22
1288 1240 22
1289 1240 22
1290 1240 36
1291 1240 36
1292 1240 36
1293 1240 24
1294 1240 24
1295 1240 24
1310 1240 34
1311 1240 34
1312 1240 34
1313 1240 56
1314 1240 56
1315 1240 54
1316 1240 38
1317 1240 38
1318 1240 38
1319 1240 38
1357 1240 22
1358 1240 22
1359 1240 22
1370 1240 38
1371 1240 38
1372 1240 38
1373 1240 26
1374 1240 26
1375 1240 25
1376 1240 25
1242 1241 55
1243 1241 55
1244 1241 55
1245 1241 58
1246 1241 58
1247 1241 37
1248 1241 37
1249 1241 58
1250 1241 58
1255 1241 37
1287 1241 22
1288 1241 22
1289 1241 22
1290 1241 36
1291 1241 36
1292 1241 36
1293 1241 24
1294 1241 24
1295 1241 24
1310 1241 34
1311 1241 34
1312 1241 34
1313 1241 56
1314 1241 56
1315 1241 54
1316 1241 38
1317 1241 38
1318 1241 38
1319 1241 38
1357 1241 22
1358 1241 22
1359 1241 22
1370 1241 38
1371 1241 38
1372 1241 38
1373 1241 26
1374 1241 26
1375 1241 25
1376 1241 25
1243 1242 55
1244 1242 55
1245 1242 37
1246 1242 37
1247 1242 42
1248 1242 37
1249 1242 43
1250 1242 43
1255 1242 42
1258 1242 17
1259 1242 19
1287 1242 22
1288 1242 22
1289 1242 22
1290 1242 40
1291 1242 36
1292 1242 36
1293 1242 27
1294 1242 24
1295 1242 27
1298 1242 10
1299 1242 12
1310 1242 22
1311 1242 22
1312 1242 22
1313 1242 36
1314 1242 36
1315 1242 36
1316 1242 24
1317 1242 24
1318 1242 28
1319 1242 28
1244 1243 55
1245 1243 37
1246 1243 37
1247 1243 37
1248 1243 37
1249 1243 37
1250 1243 37
1255 1243 37
1287 1243 22
1288 1243 22
1289 1243 22
1290 1243 36
1291 1243 36
1292 1243 36
1293 1243 24
1294 1243 24
1295 1243 24
1310 1243 22
1311 1243 22
1312 1243 22
1313 1243 36
1314 1243 36
1315 1243 36
1316 1243 24
1317 1243 24
1318 1243 24
1319 1243 24
1245 1244 37
1246 1244 37
1247 1244 37
1248 1244 37
1249 1244 37
1250 1244 37
1255 1244 37
1287 1244 22
1288 1244 22
1289 1244 22
1290 1244 36
1291 1244 36
1292 1244 36
1293 1244 24
1294 1244 24
1295 1244 24
1310 1244 22
1311 1244 22
1312 1244 22
1313 1244 36
1314 1244 36
1315 1244 36
1316 1244 24
1317 1244 24
1318 1244 24
1319 1244 24
1246 1245 58
1247 1245 37
1248 1245 37
1249 1245 58
1250 1245 58
1255 1245 37
1290 1245 24
1291 1245 24
1292 1245 24
1293 1245 24
1294 1245 24
1295 1245 24
1313 1245 38
1314 1245 38
1315 1245 36
1316 1245 38
1317 1245 38
1318 1245 38
1319 1245 38
1370 1245 26
1371 1245 26
1372 1245 26
1373 1245 26
1374 1245 26
1375 1245 25
1376 1245 25
1247 1246 37
1248 1246 37
1249 1246 58
1250 1246 58
1255 1246 37
1290 1246 24
1291 1246 24
1292 1246 24
1293 1246 24
1294 1246 24
1295 1246 24
1313 1246 38
1314 1246 38
1315 1246 36
1316 1246 38
1317 1246 38
1318 1246 38
1319 1246 38
1370 1246 26
1371 1246 26
1372 1246 26
1373 1246 26
1374 1246 26
1375 1246 25
1376 1246 25
1248 1247 37
1249 1247 57
1250 1247 56
1251 1247 18
1252 1247 25
1253 1247 26
1254 1247 24
1255 1247 57
1256 1247 18
1259 1247 27
1290 1247 27
1291 1247 24
1292 1247 24
1293 1247 35
1294 1247 24
1295 1247 35
1296 1247 10
1297 1247 13
1298 1247 15
1299 1247 17
1313 1247 24
1314 1247 24
1315 1247 24
1316 1247 24
1317 1247 24
1318 1247 37
1319 1247 36
1320 1247 10
1321 1247 14
1322 1247 15
1249 1248 37
1250 1248 37
1255 1248 37
1290 1248 24
1291 1248 24
1292 1248 24
1293 1248 24
1294 1248 24
1295 1248 24
1313 1248 24
1314 1248 24
1315 1248 24
1316 1248 24
1317 1248 24
1318 1248 24
1319 1248 24
1250 1249 87
1251 1249 29
1252 1249 39
1253 1249 40
1254 1249 39
1255 1249 57
1256 1249 20
1257 1249 26
1258 1249 29
1259 1249 29
1290 1249 28
1291 1249 24
1292 1249 24
1293 1249 37
1294 1249 24
1295 1249 37
1296 1249 10
1297 1249 15
1298 1249 17
1299 1249 19
1313 1249 38
1314 1249 38
1315 1249 36
1316 1249 38
1317 1249 38
1318 1249 59
1319 1249 58
1320 1249 10
1321 1249 23
1322 1249 26
1370 1249 26
1371 1249 26
1372 1249 26
1373 1249 26
1374 1249 26
1375 1249 36
1376 1249 36
1378 1249 16
1379 1249 16
1251 1250 28
1253 1250 39
1254 1250 38
1255 1250 56
1256 1250 19
1257 1250 25
1258 1250 28
1259 1250 28
1290 1250 28
1291 1250 24
1292 1250 24
1293 1250 36
1294 1250 24
1295 1250 36
1296 1250 10
1297 1250 14
1298 1250 16
1299 1250 18
1313 1250 38
1314 1250 38
1315 1250 36
1316 1250 38
1317 1250 38
1318 1250 58
1319 1250 57
1320 1250 10
1321 1250 22
1322 1250 25
1370 1250 26
1371 1250 26
1372 1250 26
1373 1250 26
1374 1250 26
1375 1250 35
1376 1250 35
1378 1250 15
1379 1250 15
1252 1251 22
1253 1251 23
1255 1251 18
1256 1251 20
1257 1251 14
1258 1251 14
1293 1251 14
1295 1251 14
1296 1251 10
1318 1251 21
1319 1251 21
1320 1251 10
1375 1251 12
1376 1251 12
1253 1252 39
1254 1252 36
1255 1252 25
1256 1252 15
1257 1252 25
1258 1252 25
1259 1252 25
1293 1252 16
1295 1252 16
1297 1252 14
1298 1252 14
1299 1252 16
1318 1252 26
1319 1252 25
1321 1252 20
1322 1252 23
1375 1252 14
1376 1252 14
1378 1252 13
1379 1252 13
1254 1253 37
1255 1253 26
1256 1253 16
1257 1253 26
1258 1253 26
1259 1253 26
1293 1253 17
1295 1253 17
1297 1253 15
1298 1253 15
1299 1253 17
1318 1253 27
1319 1253 26
1321 1253 21
1322 1253 24
1375 1253 15
1376 1253 15
1378 1253 14
1379 1253 14
1255 1254 24
1257 1254 24
1258 1254 24
1259 1254 26
1293 1254 15
1295 1254 15
1297 1254 15
1298 1254 15
1299 1254 17
1318 1254 26
1319 1254 25
1321 1254 23
1322 1254 26
1375 1254 15
1376 1254 15
1378 1254 16
1379 1254 16
1256 1255 18
1259 1255 27
1290 1255 27
1291 1255 24
1292 1255 24
1293 1255 35
1294 1255 24
1295 1255 35
1296 1255 10
1297 1255 13
1298 1255 15
1299 1255 17
1313 1255 24
1314 1255 24
1315 1255 24
1316 1255 24
1317 1255 24
1318 1255 37
1319 1255 36
1320 1255 10
1321 1255 14
1322 1255 15
1257 1256 14
1258 1256 14
1293 1256 14
1295 1256 14
1296 1256 10
1318 1256 14
1319 1256 14
1320 1256 10
1258 1257 26
1259 1257 24
1293 1257 15
1295 1257 15
1297 1257 13
1298 1257 13
1299 1257 15
1318 1257 17
1319 1257 16
1321 1257 14
1322 1257 15
1259 1258 27
1290 1258 10
1293 1258 17
1295 1258 17
1297 1258 13
1298 1258 15
1299 1258 17
1318 1258 19
1319 1258 18
1321 1258 14
1322 1258 15
1290 1259 12
1293 1259 17
1295 1259 17
1297 1259 15
1298 1259 17
1299 1259 19
1318 1259 19
1319 1259 18
1321 1259 16
1322 1259 17
1278 1277 37
1279 1277 58
1280 1277 16
1283 1277 28
1284 1277 41
1285 1277 37
1286 1277 37
1300 1277 37
1301 1277 37
1302 1277 58
1303 1277 58
1304 1277 16
1305 1277 25
1306 1277 25
1307 1277 37
1308 1277 37
1309 1277 37
1529 1277 27
1530 1277 24
1531 1277 24
1532 1277 37
1533 1277 24
1534 1277 37
1535 1277 37
1536 1277 14
1537 1277 16
1538 1277 17
1539 1277 14
1540 1277 24
1541 1277 24
1542 1277 24
1543 1277 24
1544 1277 24
1550 1277 37
1551 1277 14
1552 1277 17
1553 1277 19
1554 1277 17
1279 1278 37
1284 1278 37
1285 1278 37
1286 1278 37
1300 1278 37
1301 1278 37
1302 1278 37
1303 1278 37
1307 1278 37
1308 1278 37
1309 1278 37
1529 1278 24
1530 1278 24
1531 1278 24
1532 1278 24
1533 1278 24
1534 1278 24
1535 1278 24
1540 1278 24
1541 1278 24
1542 1278 24
1543 1278 24
1544 1278 24
1550 1278 24
1280 1279 16
1283 1279 28
1284 1279 41
1285 1279 37
1286 1279 37
1300 1279 37
1301 1279 37
1302 1279 58
1303 1279 58
1304 1279 16
1305 1279 25
1306 1279 25
1307 1279 37
1308 1279 37
1309 1279 37
1529 1279 27
1530 1279 24
1531 1279 24
1532 1279 37
1533 1279 24
1534 1279 37
1535 1279 37
1536 1279 14
1537 1279 16
1538 1279 17
1539 1279 14
1540 1279 24
1541 1279 24
1542 1279 24
1543 1279 24
1544 1279 24
1550 1279 37
1551 1279 14
1552 1279 17
1553 1279 19
1554 1279 17
1302 1280 16
1303 1280 16
1304 1280 16
1532 1280 10
1534 1280 10
1535 1280 10
1536 1280 10
1550 1280 10
1551 1280 10
1282 1281 24
1283 1281 24
1303 1281 24
1305 1281 24
1306 1281 24
1532 1281 14
1534 1281 14
1535 1281 14
1537 1281 13
1538 1281 14
1539 1281 13
1550 1281 14
1552 1281 14
1553 1281 14
1554 1281 14
1283 1282 25
1302 1282 24
1303 1282 25
1305 1282 25
1306 1282 25
1532 1282 15
1534 1282 15
1535 1282 15
1537 1282 14
1538 1282 15
1539 1282 14
1550 1282 15
1552 1282 15
1553 1282 15
1554 1282 15
1284 1283 17
1302 1283 29
1303 1283 30
1305 1283 27
1306 1283 27
1529 1283 11
1532 1283 19
1534 1283 19
1535 1283 19
1537 1283 16
1538 1283 17
1539 1283 16
1550 1283 19
1552 1283 17
1553 1283 19
1554 1283 19
1285 1284 55
1286 1284 55
1287 1284 34
1288 1284 34
1289 1284 34
1300 1284 37
1301 1284 37
1302 1284 41
1303 1284 41
1307 1284 55
1308 1284 55
1309 1284 55
1310 1284 34
1311 1284 34
1312 1284 34
1518 1284 22
1519 1284 22
1520 1284 22
1521 1284 21
1522 1284 21
1523 1284 22
1529 1284 39
1530 1284 36
1531 1284 34
1532 1284 27
1533 1284 24
1534 1284 27
1535 1284 27
1540 1284 36
1541 1284 36
1542 1284 36
1543 1284 24
1544 1284 24
1550 1284 27
1553 1284 11
1554 1284 11
1286 1285 55
1287 1285 34
1288 1285 34
1289 1285 34
1300 1285 37
1301 1285 37
1302 1285 37
1303 1285 37
1307 1285 55
1308 1285 55
1309 1285 55
1310 1285 34
1311 1285 34
1312 1285 34
1518 1285 22
1519 1285 22
1520 1285 22
1521 1285 21
1522 1285 21
1523 1285 22
1529 1285 36
1530 1285 36
1531 1285 34
1532 1285 24
1533 1285 24
1534 1285 24
1535 1285 24
1540 1285 36
1541 1285 36
1542 1285 36
1543 1285 24
1544 1285 24
1550 1285 24
1287 1286 34
1288 1286 34
1289 1286 34
1300 1286 37
1301 1286 37
1302 1286 37
1303 1286 37
1307 1286 55
1308 1286 55
1309 1286 55
1310 1286 34
1311 1286 34
1312 1286 34
1518 1286 22
1519 1286 22
1520 1286 22
1521 1286 21
1522 1286 21
1523 1286 22
1529 1286 36
1530 1286 36
1531 1286 34
1532 1286 24
1533 1286 24
1534 1286 24
1535 1286 24
1540 1286 36
1541 1286 36
1542 1286 36
1543 1286 24
1544 1286 24
1550 1286 24
1288 1287 52
1289 1287 52
1290 1287 34
1291 1287 34
1292 1287 34
1307 1287 34
1308 1287 34
1309 1287 34
1310 1287 52
1311 1287 52
1312 1287 52
1313 1287 34
1314 1287 34
1315 1287 34
1500 1287 22
1501 1287 22
1502 1287 22
1510 1287 22
1511 1287 21
1512 1287 22
1518 1287 34
1519 1287 34
1520 1287 34
1521 1287 33
1522 1287 33
1523 1287 33
1529 1287 22
1530 1287 22
1531 1287 20
1540 1287 22
1541 1287 22
1542 1287 22
1289 1288 52
1290 1288 34
1291 1288 34
1292 1288 34
1307 1288 34
1308 1288 34
1309 1288 34
1310 1288 52
1311 1288 52
1312 1288 52
1313 1288 34
1314 1288 34
1315 1288 34
1500 1288 22
1501 1288 22
1502 1288 22
1510 1288 22
1511 1288 21
1512 1288 22
1518 1288 34
1519 1288 34
1520 1288 34
1521 1288 33
1522 1288 33
1523 1288 33
1529 1288 22
1530 1288 22
1531 1288 20
1540 1288 22
1541 1288 22
1542 1288 22
1290 1289 34
1291 1289 34
1292 1289 34
1307 1289 34
1308 1289 34
1309 1289 34
1310 1289 52
1311 1289 52
1312 1289 52
1313 1289 34
1314 1289 34
1315 1289 34
1500 1289 22
1501 1289 22
1502 1289 22
1510 1289 22
1511 1289 21
1512 1289 22
1518 1289 34
1519 1289 34
1520 1289 34
1521 1289 33
1522 1289 33
1523 1289 33
1529 1289 22
1530 1289 22
1531 1289 20
1540 1289 22
1541 1289 22
1542 1289 22
1291 1290 55
1292 1290 55
1293 1290 42
1294 1290 37
1295 1290 42
1298 1290 17
1299 1290 19
1310 1290 34
1311 1290 34
1312 1290 34
1313 1290 55
1314 1290 55
1315 1290 55
1316 1290 37
1317 1290 37
1318 1290 43
1319 1290 43
1492 1290 28
1493 1290 28
1498 1290 24
1499 1290 24
1500 1290 36
1501 1290 36
1502 1290 36
1503 1290 28
1504 1290 24
1505 1290 28
1508 1290 12
1509 1290 12
1510 1290 40
1511 1290 35
1512 1290 36
1518 1290 22
1519 1290 22
1520 1290 22
1521 1290 22
1522 1290 22
1523 1290 21
1292 1291 55
1293 1291 37
1294 1291 37
1295 1291 37
1310 1291 34
1311 1291 34
1312 1291 34
1313 1291 55
1314 1291 55
1315 1291 55
1316 1291 37
1317 1291 37
1318 1291 37
1319 1291 37
1492 1291 24
1493 1291 24
1498 1291 24
1499 1291 24
1500 1291 36
1501 1291 36
1502 1291 36
1503 1291 24
1504 1291 24
1505 1291 24
1510 1291 36
1511 1291 35
1512 1291 36
1518 1291 22
1519 1291 22
1520 1291 22
1521 1291 22
1522 1291 22
1523 1291 21
1293 1292 37
1294 1292 37
1295 1292 37
1310 1292 34
1311 1292 34
1312 1292 34
1313 1292 55
1314 1292 55
1315 1292 55
1316 1292 37
1317 1292 37
1318 1292 37
1319 1292 37
1492 1292 24
1493 1292 24
1498 1292 24
1499 1292 24
1500 1292 36
1501 1292 36
1502 1292 36
1503 1292 24
1504 1292 24
1505 1292 24
1510 1292 36
1511 1292 35
1512 1292 36
1518 1292 22
1519 1292 22
1520 1292 22
1521 1292 22
1522 1292 22
1523 1292 21
1294 1293 37
1295 1293 58
1296 1293 16
1299 1293 28
1313 1293 37
1314 1293 37
1315 1293 37
1316 1293 37
1317 1293 37
1318 1293 58
1319 1293 57
1320 1293 16
1321 1293 24
1322 1293 25
1492 1293 37
1493 1293 37
1494 1293 14
1495 1293 17
1496 1293 17
1497 1293 15
1498 1293 24
1499 1293 24
1500 1293 24
1501 1293 24
1502 1293 24
1503 1293 37
1504 1293 24
1505 1293 37
1506 1293 14
1507 1293 17
1508 1293 19
1509 1293 17
1510 1293 27
1511 1293 24
1512 1293 24
1295 1294 37
1313 1294 37
1314 1294 37
1315 1294 37
1316 1294 37
1317 1294 37
1318 1294 37
1319 1294 37
1492 1294 24
1493 1294 24
1498 1294 24
1499 1294 24
1500 1294 24
1501 1294 24
1502 1294 24
1503 1294 24
1504 1294 24
1505 1294 24
1510 1294 24
1511 1294 24
1512 1294 24
1296 1295 16
1299 1295 28
1313 1295 37
1314 1295 37
1315 1295 37
1316 1295 37
1317 1295 37
1318 1295 58
1319 1295 57
1320 1295 16
1321 1295 24
1322 1295 25
1492 1295 37
1493 1295 37
1494 1295 14
1495 1295 17
1496 1295 17
1497 1295 15
1498 1295 24
1499 1295 24
1500 1295 24
1501 1295 24
1502 1295 24
1503 1295 37
1504 1295 24
1505 1295 37
1506 1295 14
1507 1295 17
1508 1295 19
1509 1295 17
1510 1295 27
1511 1295 24
1512 1295 24
1318 1296 16
1319 1296 16
1320 1296 16
1492 1296 10
1493 1296 10
1494 1296 10
1503 1296 10
1505 1296 10
1506 1296 10
1298 1297 25
1299 1297 25
1318 1297 25
1319 1297 24
1321 1297 24
1322 1297 25
1492 1297 15
1493 1297 15
1495 1297 15
1496 1297 15
1497 1297 15
1503 1297 15
1505 1297 15
1507 1297 15
1508 1297 15
1509 1297 15
1299 1298 28
1318 1298 28
1319 1298 27
1321 1298 24
1322 1298 25
1492 1298 17
1493 1298 17
1495 1298 15
1496 1298 15
1497 1298 15
1503 1298 17
1505 1298 17
1507 1298 15
1508 1298 17
1509 1298 17
1510 1298 10
1318 1299 30
1319 1299 29
1321 1299 26
1322 1299 27
1492 1299 19
1493 1299 19
1495 1299 17
1496 1299 17
1497 1299 17
1503 1299 19
1505 1299 19
1507 1299 17
1508 1299 19
1509 1299 19
1510 1299 12
1301 1300 58
1302 1300 58
1303 1300 58
1307 1300 58
1308 1300 58
1309 1300 58
1323 1300 40
1324 1300 40
1325 1300 40
1326 1300 40
1344 1300 40
1345 1300 40
1346 1300 40
1470 1300 26
1471 1300 26
1472 1300 26
1473 1300 26
1474 1300 26
1479 1300 26
1480 1300 26
1529 1300 24
1530 1300 24
1531 1300 24
1532 1300 24
1533 1300 24
1534 1300 38
1535 1300 38
1540 1300 38
1541 1300 38
1542 1300 38
1543 1300 38
1544 1300 38
1550 1300 24
1302 1301 58
1303 1301 58
1307 1301 58
1308 1301 58
1309 1301 58
1323 1301 40
1324 1301 40
1325 1301 40
1326 1301 40
1344 1301 40
1345 1301 40
1346 1301 40
1470 1301 26
1471 1301 26
1472 1301 26
1473 1301 26
1474 1301 26
1479 1301 26
1480 1301 26
1529 1301 24
1530 1301 24
1531 1301 24
1532 1301 24
1533 1301 24
1534 1301 38
1535 1301 38
1540 1301 38
1541 1301 38
1542 1301 38
1543 1301 38
1544 1301 38
1550 1301 24
1303 1302 84
1304 1302 16
1305 1302 32
1306 1302 34
1307 1302 58
1308 1302 58
1309 1302 58
1323 1302 40
1324 1302 40
1325 1302 49
1326 1302 47
1329 1302 16
1344 1302 40
1345 1302 40
1346 1302 40
1470 1302 26
1471 1302 26
1472 1302 26
1473 1302 36
1474 1302 34
1476 1302 16
1477 1302 16
1478 1302 13
1479 1302 26
1480 1302 26
1529 1302 27
1530 1302 24
1531 1302 24
1532 1302 38
1533 1302 24
1534 1302 56
1535 1302 56
1536 1302 20
1537 1302 25
1538 1302 26
1539 1302 23
1540 1302 38
1541 1302 38
1542 1302 38
1543 1302 38
1544 1302 38
1550 1302 38
1551 1302 14
1552 1302 18
1553 1302 20
1554 1302 18
1304 1303 16
1305 1303 33
1306 1303 35
1307 1303 58
1308 1303 58
1309 1303 58
1323 1303 40
1324 1303 40
1325 1303 49
1326 1303 47
1329 1303 16
1344 1303 40
1345 1303 40
1346 1303 40
1470 1303 26
1471 1303 26
1472 1303 26
1473 1303 36
1474 1303 34
1476 1303 16
1477 1303 16
1478 1303 13
1479 1303 26
1480 1303 26
1529 1303 27
1530 1303 24
1531 1303 24
1532 1303 39
1533 1303 24
1534 1303 57
1535 1303 57
1536 1303 20
1537 1303 26
1538 1303 27
1539 1303 24
1540 1303 38
1541 1303 38
1542 1303 38
1543 1303 38
1544 1303 38
1550 1303 39
1551 1303 14
1552 1303 19
1553 1303 21
1554 1303 19
1532 1304 10
1534 1304 10
1535 1304 10
1536 1304 10
1550 1304 10
1551 1304 10
1306 1305 33
1328 1305 11
1329 1305 16
1473 1305 14
1474 1305 12
1476 1305 14
1477 1305 14
1478 1305 13
1532 1305 17
1534 1305 24
1535 1305 24
1537 1305 23
1538 1305 24
1539 1305 23
1550 1305 17
1552 1305 17
1553 1305 17
1554 1305 17
1325 1306 16
1326 1306 14
1329 1306 16
1473 1306 15
1474 1306 13
1476 1306 15
1477 1306 15
1478 1306 13
1532 1306 17
1534 1306 25
1535 1306 25
1537 1306 24
1538 1306 25
1539 1306 24
1550 1306 17
1552 1306 17
1553 1306 17
1554 1306 17
1308 1307 85
1309 1307 85
1310 1307 52
1311 1307 52
1312 1307 52
1323 1307 40
1324 1307 40
1325 1307 40
1326 1307 40
1344 1307 58
1345 1307 58
1346 1307 58
1357 1307 33
1358 1307 34
1359 1307 34
1467 1307 22
1468 1307 22
1469 1307 22
1470 1307 38
1471 1307 38
1472 1307 38
1473 1307 26
1474 1307 26
1479 1307 26
1480 1307 26
1518 1307 34
1519 1307 33
1520 1307 34
1521 1307 21
1522 1307 21
1523 1307 22
1529 1307 36
1530 1307 36
1531 1307 34
1532 1307 24
1533 1307 24
1534 1307 38
1535 1307 38
1540 1307 56
1541 1307 56
1542 1307 56
1543 1307 38
1544 1307 38
1550 1307 24
1309 1308 85
1310 1308 52
1311 1308 52
1312 1308 52
1323 1308 40
1324 1308 40
1325 1308 40
1326 1308 40
1344 1308 58
1345 1308 58
1346 1308 58
1357 1308 33
1358 1308 34
1359 1308 34
1467 1308 22
1468 1308 22
1469 1308 22
1470 1308 38
1471 1308 38
1472 1308 38
1473 1308 26
1474 1308 26
1479 1308 26
1480 1308 26
1518 1308 34
1519 1308 33
1520 1308 34
1521 1308 21
1522 1308 21
1523 1308 22
1529 1308 36
1530 1308 36
1531 1308 34
1532 1308 24
1533 1308 24
1534 1308 38
1535 1308 38
1540 1308 56
1541 1308 56
1542 1308 56
1543 1308 38
1544 1308 38
1550 1308 24
1310 1309 52
1311 1309 52
1312 1309 52
1323 1309 40
1324 1309 40
1325 1309 40
1326 1309 40
1344 1309 58
1345 1309 58
1346 1309 58
1357 1309 33
1358 1309 34
1359 1309 34
1467 1309 22
1468 1309 22
1469 1309 22
1470 1309 38
1471 1309 38
1472 1309 38
1473 1309 26
1474 1309 26
1479 1309 26
1480 1309 26
1518 1309 34
1519 1309 33
1520 1309 34
1521 1309 21
1522 1309 21
1523 1309 22
1529 1309 36
1530 1309 36
1531 1309 34
1532 1309 24
1533 1309 24
1534 1309 38
1535 1309 38
1540 1309 56
1541 1309 56
1542 1309 56
1543 1309 38
1544 1309 38
1550 1309 24
1311 1310 79
1312 1310 79
1313 1310 52
1314 1310 52
1315 1310 52
1344 1310 34
1345 1310 34
1346 1310 34
1357 1310 51
1358 1310 52
1359 1310 52
1370 1310 34
1371 1310 34
1372 1310 34
1467 1310 34
1468 1310 34
1469 1310 34
1470 1310 22
1471 1310 22
1472 1310 22
1487 1310 22
1488 1310 22
1489 1310 22
1500 1310 34
1501 1310 34
1502 1310 34
1510 1310 22
1511 1310 21
1512 1310 22
1518 1310 52
1519 1310 51
1520 1310 52
1521 1310 33
1522 1310 33
1523 1310 33
1529 1310 22
1530 1310 22
1531 1310 20
1540 1310 34
1541 1310 34
1542 1310 34
1312 1311 79
1313 1311 52
1314 1311 52
1315 1311 52
1344 1311 34
1345 1311 34
1346 1311 34
1357 1311 51
1358 1311 52
1359 1311 52
1370 1311 34
1371 1311 34
1372 1311 34
1467 1311 34
1468 1311 34
1469 1311 34
1470 1311 22
1471 1311 22
1472 1311 22
1487 1311 22
1488 1311 22
1489 1311 22
1500 1311 34
1501 1311 34
1502 1311 34
1510 1311 22
1511 1311 21
1512 1311 22
1518 1311 52
1519 1311 51
1520 1311 52
1521 1311 33
1522 1311 33
1523 1311 33
1529 1311 22
1530 1311 22
1531 1311 20
1540 1311 34
1541 1311 34
1542 1311 34
1313 1312 52
1314 1312 52
1315 1312 52
1344 1312 34
1345 1312 34
1346 1312 34
1357 1312 51
1358 1312 52
1359 1312 52
1370 1312 34
1371 1312 34
1372 1312 34
1467 1312 34
1468 1312 34
1469 1312 34
1470 1312 22
1471 1312 22
1472 1312 22
1487 1312 22
1488 1312 22
1489 1312 22
1500 1312 34
1501 1312 34
1502 1312 34
1510 1312 22
1511 1312 21
1512 1312 22
1518 1312 52
1519 1312 51
1520 1312 52
1521 1312 33
1522 1312 33
1523 1312 33
1529 1312 22
1530 1312 22
1531 1312 20
1540 1312 34
1541 1312 34
1542 1312 34
1314 1313 85
1315 1313 83
1316 1313 58
1317 1313 58
1318 1313 58
1319 1313 58
1357 1313 33
1358 1313 34
1359 1313 34
1370 1313 58
1371 1313 58
1372 1313 58
1373 1313 40
1374 1313 40
1375 1313 39
1376 1313 39
1467 1313 22
1468 1313 22
1469 1313 22
1481 1313 26
1482 1313 26
1487 1313 38
1488 1313 38
1489 1313 38
1490 1313 26
1491 1313 26
1492 1313 38
1493 1313 38
1498 1313 38
1499 1313 38
1500 1313 56
1501 1313 56
1502 1313 56
1503 1313 24
1504 1313 24
1505 1313 24
1510 1313 36
1511 1313 35
1512 1313 36
1518 1313 34
1519 1313 33
1520 1313 34
1521 1313 22
1522 1313 22
1523 1313 21
1315 1314 83
1316 1314 58
1317 1314 58
1318 1314 58
1319 1314 58
1357 1314 33
1358 1314 34
1359 1314 34
1370 1314 58
1371 1314 58
1372 1314 58
1373 1314 40
1374 1314 40
1375 1314 39
1376 1314 39
1467 1314 22
1468 1314 22
1469 1314 22
1481 1314 26
1482 1314 26
1487 1314 38
1488 1314 38
1489 1314 38
1490 1314 26
1491 1314 26
1492 1314 38
1493 1314 38
1498 1314 38
1499 1314 38
1500 1314 56
1501 1314 56
1502 1314 56
1503 1314 24
1504 1314 24
1505 1314 24
1510 1314 36
1511 1314 35
1512 1314 36
1518 1314 34
1519 1314 33
1520 1314 34
1521 1314 22
1522 1314 22
1523 1314 21
1316 1315 56
1317 1315 56
1318 1315 56
1319 1315 56
1357 1315 33
1358 1315 34
1359 1315 34
1370 1315 56
1371 1315 56
1372 1315 56
1373 1315 38
1374 1315 38
1467 1315 22
1468 1315 22
1469 1315 22
1481 1315 24
1482 1315 24
1487 1315 36
1488 1315 36
1489 1315 36
1490 1315 24
1491 1315 24
1492 1315 36
1493 1315 36
1498 1315 36
1499 1315 36
1500 1315 54
1501 1315 54
1502 1315 54
1503 1315 24
1504 1315 24
1505 1315 24
1510 1315 36
1511 1315 35
1512 1315 36
1518 1315 34
1519 1315 33
1520 1315 34
1521 1315 22
1522 1315 22
1523 1315 21
1317 1316 58
1318 1316 58
1319 1316 58
1370 1316 40
1371 1316 40
1372 1316 40
1373 1316 40
1374 1316 40
1375 1316 39
1376 1316 39
1481 1316 26
1482 1316 26
1487 1316 26
1488 1316 26
1489 1316 26
1490 1316 26
1491 1316 26
1492 1316 38
1493 1316 38
1498 1316 38
1499 1316 38
1500 1316 38
1501 1316 38
1502 1316 38
1503 1316 24
1504 1316 24
1505 1316 24
1510 1316 24
1511 1316 24
1512 1316 24
1318 1317 58
1319 1317 58
1370 1317 40
1371 1317 40
1372 1317 40
1373 1317 40
1374 1317 40
1375 1317 39
1376 1317 39
1481 1317 26
1482 1317 26
1487 1317 26
1488 1317 26
1489 1317 26
1490 1317 26
1491 1317 26
1492 1317 38
1493 1317 38
1498 1317 38
1499 1317 38
1500 1317 38
1501 1317 38
1502 1317 38
1503 1317 24
1504 1317 24
1505 1317 24
1510 1317 24
1511 1317 24
1512 1317 24
1319 1318 90
1320 1318 16
1321 1318 38
1322 1318 41
1370 1318 40
1371 1318 40
1372 1318 40
1373 1318 40
1374 1318 40
1375 1318 58
1376 1318 58
1378 1318 26
1379 1318 26
1481 1318 38
1482 1318 38
1483 1318 12
1484 1318 17
1485 1318 17
1486 1318 14
1487 1318 26
1488 1318 26
1489 1318 26
1490 1318 26
1491 1318 26
1492 1318 59
1493 1318 59
1494 1318 21
1495 1318 29
1496 1318 29
1497 1318 26
1498 1318 38
1499 1318 38
1500 1318 38
1501 1318 38
1502 1318 38
1503 1318 39
1504 1318 24
1505 1318 39
1506 1318 14
1507 1318 19
1508 1318 21
1509 1318 19
1510 1318 28
1511 1318 24
1512 1318 24
1320 1319 16
1322 1319 40
1370 1319 40
1371 1319 40
1372 1319 40
1373 1319 40
1374 1319 40
1375 1319 58
1376 1319 58
1378 1319 25
1379 1319 25
1481 1319 37
1482 1319 37
1483 1319 12
1484 1319 16
1485 1319 16
1486 1319 13
1487 1319 26
1488 1319 26
1489 1319 26
1490 1319 26
1491 1319 26
1492 1319 58
1493 1319 58
1494 1319 21
1495 1319 28
1496 1319 28
1497 1319 25
1498 1319 38
1499 1319 38
1500 1319 38
1501 1319 38
1502 1319 38
1503 1319 38
1504 1319 24
1505 1319 38
1506 1319 14
1507 1319 18
1508 1319 20
1509 1319 18
1510 1319 28
1511 1319 24
1512 1319 24
1492 1320 10
1493 1320 10
1494 1320 10
1503 1320 10
1505 1320 10
1506 1320 10
1322 1321 38
1378 1321 23
1379 1321 23
1481 1321 13
1482 1321 13
1484 1321 12
1485 1321 12
1486 1321 11
1492 1321 23
1493 1321 23
1495 1321 23
1496 1321 23
1497 1321 23
1503 1321 16
1505 1321 16
1507 1321 16
1508 1321 16
1509 1321 16
1375 1322 25
1376 1322 25
1378 1322 26
1379 1322 26
1481 1322 16
1482 1322 16
1484 1322 15
1485 1322 15
1486 1322 14
1492 1322 26
1493 1322 26
1495 1322 26
1496 1322 26
1497 1322 26
1503 1322 17
1505 1322 17
1507 1322 17
1508 1322 17
1509 1322 17
1324 1323 61
1325 1323 61
1326 1323 61
1330 1323 40
1331 1323 40
1332 1323 40
1333 1323 40
1344 1323 61
1345 1323 61
1346 1323 61
1347 1323 40
1348 1323 40
1349 1323 40
1456 1323 26
1457 1323 26
1462 1323 26
1463 1323 26
1464 1323 26
1465 1323 26
1466 1323 26
1470 1323 40
1471 1323 40
1472 1323 40
1473 1323 40
1474 1323 40
1479 1323 40
1480 1323 40
1534 1323 26
1535 1323 26
1540 1323 26
1541 1323 26
1542 1323 26
1543 1323 26
1544 1323 26
1325 1324 61
1326 1324 61
1330 1324 40
1331 1324 40
1332 1324 40
1333 1324 40
1344 1324 61
1345 1324 61
1346 1324 61
1347 1324 40
1348 1324 40
1349 1324 40
1456 1324 26
1457 1324 26
1462 1324 26
1463 1324 26
1464 1324 26
1465 1324 26
1466 1324 26
1470 1324 40
1471 1324 40
1472 1324 40
1473 1324 40
1474 1324 40
1479 1324 40
1480 1324 40
1534 1324 26
1535 1324 26
1540 1324 26
1541 1324 26
1542 1324 26
1543 1324 26
1544 1324 26
1326 1325 74
1328 1325 18
1329 1325 23
1330 1325 40
1331 1325 40
1332 1325 49
1333 1325 49
1336 1325 17
1344 1325 61
1345 1325 61
1346 1325 61
1347 1325 40
1348 1325 40
1349 1325 40
1456 1325 36
1457 1325 36
1458 1325 11
1459 1325 15
1460 1325 16
1461 1325 14
1462 1325 26
1463 1325 26
1464 1325 26
1465 1325 26
1466 1325 26
1470 1325 40
1471 1325 40
1472 1325 40
1473 1325 55
1474 1325 53
1476 1325 25
1477 1325 25
1478 1325 21
1479 1325 40
1480 1325 40
1534 1325 36
1535 1325 36
1536 1325 11
1537 1325 15
1538 1325 16
1539 1325 14
1540 1325 26
1541 1325 26
1542 1325 26
1543 1325 26
1544 1325 26
1328 1326 16
1330 1326 40
1331 1326 40
1332 1326 47
1333 1326 47
1336 1326 15
1344 1326 61
1345 1326 61
1346 1326 61
1347 1326 40
1348 1326 40
1349 1326 40
1456 1326 35
1457 1326 35
1458 1326 12
1459 1326 14
1460 1326 15
1461 1326 12
1462 1326 26
1463 1326 26
1464 1326 26
1465 1326 26
1466 1326 26
1470 1326 40
1471 1326 40
1472 1326 40
1473 1326 53
1474 1326 54
1475 1326 12
1476 1326 24
1477 1326 23
1479 1326 40
1480 1326 40
1534 1326 35
1535 1326 35
1536 1326 12
1537 1326 14
1538 1326 15
1539 1326 12
1540 1326 26
1541 1326 26
1542 1326 26
1543 1326 26
1544 1326 26
1329 1328 17
1335 1328 11
1336 1328 14
1456 1328 14
1457 1328 14
1459 1328 13
1460 1328 14
1461 1328 13
1473 1328 20
1474 1328 18
1476 1328 20
1477 1328 20
1478 1328 18
1534 1328 13
1535 1328 13
1537 1328 12
1538 1328 13
1539 1328 12
1332 1329 12
1333 1329 12
1336 1329 13
1456 1329 13
1457 1329 13
1459 1329 12
1460 1329 13
1461 1329 12
1473 1329 22
1476 1329 22
1477 1329 22
1478 1329 22
1534 1329 14
1535 1329 14
1537 1329 13
1538 1329 14
1539 1329 13
1331 1330 58
1332 1330 58
1333 1330 58
1337 1330 37
1338 1330 37
1339 1330 37
1344 1330 40
1345 1330 40
1346 1330 40
1347 1330 58
1348 1330 58
1349 1330 58
1350 1330 37
1351 1330 37
1352 1330 37
1432 1330 24
1433 1330 24
1434 1330 24
1435 1330 24
1436 1330 24
1437 1330 24
1456 1330 38
1457 1330 38
1462 1330 38
1463 1330 38
1464 1330 38
1465 1330 38
1466 1330 38
1470 1330 26
1471 1330 26
1472 1330 26
1473 1330 26
1474 1330 26
1479 1330 26
1480 1330 26
1332 1331 58
1333 1331 58
1337 1331 37
1338 1331 37
1339 1331 37
1344 1331 40
1345 1331 40
1346 1331 40
1347 1331 58
1348 1331 58
1349 1331 58
1350 1331 37
1351 1331 37
1352 1331 37
1432 1331 24
1433 1331 24
1434 1331 24
1435 1331 24
1436 1331 24
1437 1331 24
1456 1331 38
1457 1331 38
1462 1331 38
1463 1331 38
1464 1331 38
1465 1331 38
1466 1331 38
1470 1331 26
1471 1331 26
1472 1331 26
1473 1331 26
1474 1331 26
1479 1331 26
1480 1331 26
1333 1332 82
1334 1332 16
1336 1332 33
1337 1332 57
1338 1332 37
1339 1332 57
1340 1332 16
1341 1332 22
1343 1332 28
1344 1332 40
1345 1332 40
1346 1332 40
1347 1332 58
1348 1332 58
1349 1332 58
1350 1332 42
1351 1332 37
1352 1332 37
1432 1332 37
1433 1332 24
1434 1332 27
1435 1332 24
1436 1332 24
1437 1332 37
1438 1332 14
1439 1332 17
1440 1332 19
1441 1332 17
1456 1332 55
1457 1332 55
1458 1332 20
1459 1332 24
1460 1332 25
1461 1332 22
1462 1332 38
1463 1332 38
1464 1332 38
1465 1332 38
1466 1332 38
1470 1332 26
1471 1332 26
1472 1332 26
1473 1332 35
1474 1332 33
1476 1332 15
1477 1332 15
1478 1332 12
1479 1332 26
1480 1332 26
1334 1333 16
1335 1333 29
1336 1333 34
1337 1333 57
1338 1333 37
1339 1333 58
1340 1333 16
1342 1333 24
1343 1333 29
1344 1333 40
1345 1333 40
1346 1333 40
1347 1333 58
1348 1333 58
1349 1333 58
1350 1333 43
1351 1333 37
1352 1333 37
1432 1333 38
1433 1333 24
1434 1333 27
1435 1333 24
1436 1333 24
1437 1333 38
1438 1333 14
1439 1333 18
1440 1333 20
1441 1333 18
1456 1333 56
1457 1333 56
1458 1333 20
1459 1333 25
1460 1333 26
1461 1333 23
1462 1333 38
1463 1333 38
1464 1333 38
1465 1333 38
1466 1333 38
1470 1333 26
1471 1333 26
1472 1333 26
1473 1333 36
1474 1333 34
1476 1333 16
1477 1333 16
1478 1333 13
1479 1333 26
1480 1333 26
1337 1334 16
1339 1334 16
1340 1334 16
1432 1334 10
1437 1334 10
1438 1334 10
1456 1334 10
1457 1334 10
1458 1334 10
1336 1335 31
1339 1335 23
1341 1335 23
1342 1335 24
1343 1335 25
1432 1335 15
1437 1335 15
1439 1335 15
1440 1335 15
1441 1335 15
1456 1335 21
1457 1335 21
1459 1335 20
1460 1335 21
1461 1335 20
1473 1335 12
1474 1335 11
1476 1335 12
1477 1335 12
1478 1335 11
1337 1336 24
1339 1336 25
1341 1336 24
1342 1336 24
1343 1336 27
1432 1336 17
1437 1336 17
1439 1336 17
1440 1336 17
1441 1336 17
1456 1336 26
1457 1336 26
1459 1336 25
1460 1336 26
1461 1336 25
1473 1336 16
1474 1336 14
1476 1336 16
1477 1336 16
1478 1336 14
1338 1337 37
1339 1337 57
1340 1337 16
1343 1337 27
1347 1337 37
1348 1337 37
1349 1337 37
1350 1337 42
1351 1337 37
1352 1337 37
1432 1337 36
1433 1337 24
1434 1337 27
1435 1337 24
1436 1337 24
1437 1337 36
1438 1337 14
1439 1337 16
1440 1337 18
1441 1337 16
1456 1337 36
1457 1337 36
1458 1337 14
1459 1337 15
1460 1337 16
1461 1337 13
1462 1337 24
1463 1337 24
1464 1337 24
1465 1337 24
1466 1337 24
1339 1338 37
1347 1338 37
1348 1338 37
1349 1338 37
1350 1338 37
1351 1338 37
1352 1338 37
1432 1338 24
1433 1338 24
1434 1338 24
1435 1338 24
1436 1338 24
1437 1338 24
1456 1338 24
1457 1338 24
1462 1338 24
1463 1338 24
1464 1338 24
1465 1338 24
1466 1338 24
1340 1339 16
1343 1339 28
1347 1339 37
1348 1339 37
1349 1339 37
1350 1339 42
1351 1339 37
1352 1339 37
1432 1339 37
1433 1339 24
1434 1339 27
1435 1339 24
1436 1339 24
1437 1339 37
1438 1339 14
1439 1339 17
1440 1339 19
1441 1339 17
1456 1339 37
1457 1339 37
1458 1339 14
1459 1339 16
1460 1339 17
1461 1339 14
1462 1339 24
1463 1339 24
1464 1339 24
1465 1339 24
1466 1339 24
1432 1340 10
1437 1340 10
1438 1340 10
1456 1340 10
1457 1340 10
1458 1340 10
1342 1341 23
1343 1341 24
1432 1341 14
1437 1341 14
1439 1341 14
1440 1341 14
1441 1341 14
1456 1341 14
1457 1341 14
1459 1341 13
1460 1341 14
1461 1341 13
1343 1342 25
1350 1342 14
1432 1342 15
1437 1342 15
1439 1342 14
1440 1342 15
1441 1342 15
1456 1342 15
1457 1342 15
1459 1342 13
1460 1342 14
1461 1342 13
1350 1343 19
1432 1343 19
1434 1343 11
1437 1343 19
1439 1343 17
1440 1343 19
1441 1343 19
1456 1343 19
1457 1343 19
1459 1343 16
1460 1343 17
1461 1343 16
1345 1344 88
1346 1344 88
1347 1344 58
1348 1344 58
1349 1344 58
1357 1344 50
1358 1344 52
1359 1344 52
1360 1344 34
1361 1344 33
1362 1344 34
1453 1344 22
1454 1344 22
1455 1344 22
1456 1344 26
1457 1344 26
1462 1344 26
1463 1344 26
1464 1344 38
1465 1344 38
1466 1344 38
1467 1344 34
1468 1344 34
1469 1344 34
1470 1344 58
1471 1344 58
1472 1344 58
1473 1344 40
1474 1344 40
1479 1344 40
1480 1344 40
1518 1344 22
1519 1344 21
1520 1344 22
1534 1344 26
1535 1344 26
1540 1344 38
1541 1344 38
1542 1344 38
1543 1344 26
1544 1344 26
1346 1345 88
1347 1345 58
1348 1345 58
1349 1345 58
1357 1345 50
1358 1345 52
1359 1345 52
1360 1345 34
1361 1345 33
1362 1345 34
1453 1345 22
1454 1345 22
1455 1345 22
1456 1345 26
1457 1345 26
1462 1345 26
1463 1345 26
1464 1345 38
1465 1345 38
1466 1345 38
1467 1345 34
1468 1345 34
1469 1345 34
1470 1345 58
1471 1345 58
1472 1345 58
1473 1345 40
1474 1345 40
1479 1345 40
1480 1345 40
1518 1345 22
1519 1345 21
1520 1345 22
1534 1345 26
1535 1345 26
1540 1345 38
1541 1345 38
1542 1345 38
1543 1345 26
1544 1345 26
1347 1346 58
1348 1346 58
1349 1346 58
1357 1346 50
1358 1346 52
1359 1346 52
1360 1346 34
1361 1346 33
1362 1346 34
1453 1346 22
1454 1346 22
1455 1346 22
1456 1346 26
1457 1346 26
1462 1346 26
1463 1346 26
1464 1346 38
1465 1346 38
1466 1346 38
1467 1346 34
1468 1346 34
1469 1346 34
1470 1346 58
1471 1346 58
1472 1346 58
1473 1346 40
1474 1346 40
1479 1346 40
1480 1346 40
1518 1346 22
1519 1346 21
1520 1346 22
1534 1346 26
1535 1346 26
1540 1346 38
1541 1346 38
1542 1346 38
1543 1346 26
1544 1346 26
1348 1347 85
1349 1347 85
1350 1347 55
1351 1347 55
1352 1347 55
1357 1347 33
1358 1347 34
1359 1347 34
1360 1347 52
1361 1347 51
1362 1347 52
1363 1347 34
1364 1347 34
1365 1347 33
1429 1347 22
1430 1347 21
1431 1347 22
1432 1347 24
1433 1347 24
1434 1347 36
1435 1347 36
1436 1347 36
1437 1347 24
1453 1347 33
1454 1347 34
1455 1347 34
1456 1347 38
1457 1347 38
1462 1347 38
1463 1347 38
1464 1347 56
1465 1347 56
1466 1347 56
1467 1347 22
1468 1347 22
1469 1347 22
1470 1347 38
1471 1347 38
1472 1347 38
1473 1347 26
1474 1347 26
1479 1347 26
1480 1347 26
1349 1348 85
1350 1348 55
1351 1348 55
1352 1348 55
1357 1348 33
1358 1348 34
1359 1348 34
1360 1348 52
1361 1348 51
1362 1348 52
1363 1348 34
1364 1348 34
1365 1348 33
1429 1348 22
1430 1348 21
1431 1348 22
1432 1348 24
1433 1348 24
1434 1348 36
1435 1348 36
1436 1348 36
1437 1348 24
1453 1348 33
1454 1348 34
1455 1348 34
1456 1348 38
1457 1348 38
1462 1348 38
1463 1348 38
1464 1348 56
1465 1348 56
1466 1348 56
1467 1348 22
1468 1348 22
1469 1348 22
1470 1348 38
1471 1348 38
1472 1348 38
1473 1348 26
1474 1348 26
1479 1348 26
1480 1348 26
1350 1349 55
1351 1349 55
1352 1349 55
1357 1349 33
1358 1349 34
1359 1349 34
1360 1349 52
1361 1349 51
1362 1349 52
1363 1349 34
1364 1349 34
1365 1349 33
1429 1349 22
1430 1349 21
1431 1349 22
1432 1349 24
1433 1349 24
1434 1349 36
1435 1349 36
1436 1349 36
1437 1349 24
1453 1349 33
1454 1349 34
1455 1349 34
1456 1349 38
1457 1349 38
1462 1349 38
1463 1349 38
1464 1349 56
1465 1349 56
1466 1349 56
1467 1349 22
1468 1349 22
1469 1349 22
1470 1349 38
1471 1349 38
1472 1349 38
1473 1349 26
1474 1349 26
1479 1349 26
1480 1349 26
1351 1350 55
1352 1350 55
1360 1350 34
1361 1350 34
1362 1350 34
1363 1350 34
1364 1350 34
1365 1350 33
1429 1350 22
1430 1350 21
1431 1350 22
1432 1350 28
1433 1350 24
1434 1350 39
1435 1350 36
1436 1350 36
1437 1350 28
1440 1350 12
1441 1350 12
1453 1350 21
1454 1350 22
1455 1350 22
1456 1350 28
1457 1350 28
1462 1350 24
1463 1350 24
1464 1350 36
1465 1350 36
1466 1350 36
1352 1351 55
1360 1351 34
1361 1351 34
1362 1351 34
1363 1351 34
1364 1351 34
1365 1351 33
1429 1351 22
1430 1351 21
1431 1351 22
1432 1351 24
1433 1351 24
1434 1351 36
1435 1351 36
1436 1351 36
1437 1351 24
1453 1351 21
1454 1351 22
1455 1351 22
1456 1351 24
1457 1351 24
1462 1351 24
1463 1351 24
1464 1351 36
1465 1351 36
1466 1351 36
1360 1352 34
1361 1352 34
1362 1352 34
1363 1352 34
1364 1352 34
1365 1352 33
1429 1352 22
1430 1352 21
1431 1352 22
1432 1352 24
1433 1352 24
1434 1352 36
1435 1352 36
1436 1352 36
1437 1352 24
1453 1352 21
1454 1352 22
1455 1352 22
1456 1352 24
1457 1352 24
1462 1352 24
1463 1352 24
1464 1352 36
1465 1352 36
1466 1352 36
1358 1357 77
1359 1357 77
1360 1357 51
1361 1357 50
1362 1357 51
1370 1357 50
1371 1357 50
1372 1357 50
1383 1357 33
1384 1357 33
1385 1357 33
1450 1357 22
1451 1357 22
1452 1357 22
1453 1357 34
1454 1357 34
1455 1357 34
1464 1357 22
1465 1357 22
1466 1357 22
1467 1357 51
1468 1357 51
1469 1357 51
1470 1357 33
1471 1357 33
1472 1357 33
1487 1357 33
1488 1357 33
1489 1357 33
1500 1357 21
1501 1357 21
1502 1357 21
1518 1357 33
1520 1357 33
1540 1357 21
1541 1357 21
1542 1357 21
1359 1358 79
1360 1358 52
1361 1358 51
1362 1358 52
1370 1358 52
1371 1358 52
1372 1358 52
1383 1358 34
1384 1358 34
1385 1358 34
1450 1358 22
1451 1358 22
1452 1358 22
1453 1358 34
1454 1358 34
1455 1358 34
1464 1358 22
1465 1358 22
1466 1358 22
1467 1358 52
1468 1358 52
1469 1358 52
1470 1358 34
1471 1358 34
1472 1358 34
1487 1358 34
1488 1358 34
1489 1358 34
1500 1358 22
1501 1358 22
1502 1358 22
1518 1358 34
1519 1358 33
1520 1358 34
1540 1358 22
1541 1358 22
1542 1358 22
1360 1359 52
1361 1359 51
1362 1359 52
1370 1359 52
1371 1359 52
1372 1359 52
1383 1359 34
1384 1359 34
1385 1359 34
1450 1359 22
1451 1359 22
1452 1359 22
1453 1359 34
1454 1359 34
1455 1359 34
1464 1359 22
1465 1359 22
1466 1359 22
1467 1359 52
1468 1359 52
1469 1359 52
1470 1359 34
1471 1359 34
1472 1359 34
1487 1359 34
1488 1359 34
1489 1359 34
1500 1359 22
1501 1359 22
1502 1359 22
1518 1359 34
1519 1359 33
1520 1359 34
1540 1359 22
1541 1359 22
1542 1359 22
1361 1360 78
1362 1360 79
1363 1360 52
1364 1360 52
1365 1360 51
1370 1360 34
1371 1360 34
1372 1360 34
1380 1360 34
1381 1360 34
1382 1360 34
1383 1360 52
1384 1360 52
1385 1360 52
1426 1360 22
1427 1360 22
1428 1360 22
1429 1360 34
1430 1360 33
1431 1360 34
1434 1360 22
1435 1360 22
1436 1360 22
1450 1360 34
1451 1360 34
1452 1360 34
1453 1360 51
1454 1360 52
1455 1360 52
1464 1360 34
1465 1360 34
1466 1360 34
1467 1360 34
1468 1360 34
1469 1360 34
1470 1360 22
1471 1360 22
1472 1360 22
1487 1360 22
1488 1360 22
1489 1360 22
1362 1361 78
1363 1361 52
1364 1361 52
1365 1361 51
1370 1361 33
1371 1361 33
1372 1361 33
1380 1361 34
1381 1361 34
1382 1361 34
1383 1361 51
1384 1361 51
1385 1361 51
1426 1361 22
1427 1361 22
1428 1361 22
1429 1361 34
1430 1361 33
1431 1361 34
1434 1361 22
1435 1361 22
1436 1361 22
1450 1361 34
1451 1361 34
1452 1361 34
1453 1361 51
1454 1361 52
1455 1361 52
1464 1361 34
1465 1361 34
1466 1361 34
1467 1361 34
1468 1361 34
1469 1361 34
1470 1361 22
1471 1361 22
1472 1361 22
1487 1361 22
1488 1361 22
1489 1361 22
1363 1362 52
1364 1362 52
1365 1362 51
1370 1362 34
1371 1362 34
1372 1362 34
1380 1362 34
1381 1362 34
1382 1362 34
1383 1362 52
1384 1362 52
1385 1362 52
1426 1362 22
1427 1362 22
1428 1362 22
1429 1362 34
1430 1362 33
1431 1362 34
1434 1362 22
1435 1362 22
1436 1362 22
1450 1362 34
1451 1362 34
1452 1362 34
1453 1362 51
1454 1362 52
1455 1362 52
1464 1362 34
1465 1362 34
1466 1362 34
1467 1362 34
1468 1362 34
1469 1362 34
1470 1362 22
1471 1362 22
1472 1362 22
1487 1362 22
1488 1362 22
1489 1362 22
1364 1363 52
1365 1363 51
1380 1363 34
1381 1363 34
1382 1363 34
1383 1363 34
1384 1363 34
1385 1363 34
1426 1363 22
1427 1363 22
1428 1363 22
1429 1363 34
1430 1363 33
1431 1363 34
1434 1363 22
1435 1363 22
1436 1363 22
1450 1363 22
1451 1363 22
1452 1363 22
1453 1363 33
1454 1363 34
1455 1363 34
1464 1363 22
1465 1363 22
1466 1363 22
1365 1364 51
1380 1364 34
1381 1364 34
1382 1364 34
1383 1364 34
1384 1364 34
1385 1364 34
1426 1364 22
1427 1364 22
1428 1364 22
1429 1364 34
1430 1364 33
1431 1364 34
1434 1364 22
1435 1364 22
1436 1364 22
1450 1364 22
1451 1364 22
1452 1364 22
1453 1364 33
1454 1364 34
1455 1364 34
1464 1364 22
1465 1364 22
1466 1364 22
1380 1365 33
1381 1365 33
1382 1365 33
1383 1365 33
1384 1365 33
1385 1365 33
1426 1365 22
1427 1365 22
1428 1365 22
1429 1365 34
1430 1365 33
1431 1365 34
1434 1365 22
1435 1365 22
1436 1365 22
1450 1365 22
1451 1365 22
1452 1365 22
1453 1365 33
1454 1365 34
1455 1365 34
1464 1365 22
1465 1365 22
1466 1365 22
1371 1370 88
1372 1370 88
1373 1370 61
1374 1370 61
1375 1370 60
1376 1370 60
1383 1370 58
1384 1370 58
1385 1370 58
1388 1370 40
1389 1370 40
1399 1370 40
1400 1370 40
1442 1370 26
1443 1370 26
1444 1370 26
1445 1370 26
1450 1370 38
1451 1370 38
1452 1370 38
1453 1370 22
1454 1370 22
1455 1370 22
1467 1370 34
1468 1370 34
1469 1370 34
1481 1370 40
1482 1370 40
1487 1370 58
1488 1370 58
1489 1370 58
1490 1370 40
1491 1370 40
1492 1370 26
1493 1370 26
1498 1370 26
1499 1370 26
1500 1370 38
1501 1370 38
1502 1370 38
1518 1370 22
1519 1370 21
1520 1370 22
1372 1371 88
1373 1371 61
1374 1371 61
1375 1371 60
1376 1371 60
1383 1371 58
1384 1371 58
1385 1371 58
1388 1371 40
1389 1371 40
1399 1371 40
1400 1371 40
1442 1371 26
1443 1371 26
1444 1371 26
1445 1371 26
1450 1371 38
1451 1371 38
1452 1371 38
1453 1371 22
1454 1371 22
1455 1371 22
1467 1371 34
1468 1371 34
1469 1371 34
1481 1371 40
1482 1371 40
1487 1371 58
1488 1371 58
1489 1371 58
1490 1371 40
1491 1371 40
1492 1371 26
1493 1371 26
1498 1371 26
1499 1371 26
1500 1371 38
1501 1371 38
1502 1371 38
1518 1371 22
1519 1371 21
1520 1371 22
1373 1372 61
1374 1372 61
1375 1372 60
1376 1372 60
1383 1372 58
1384 1372 58
1385 1372 58
1388 1372 40
1389 1372 40
1399 1372 40
1400 1372 40
1442 1372 26
1443 1372 26
1444 1372 26
1445 1372 26
1450 1372 38
1451 1372 38
1452 1372 38
1453 1372 22
1454 1372 22
1455 1372 22
1467 1372 34
1468 1372 34
1469 1372 34
1481 1372 40
1482 1372 40
1487 1372 58
1488 1372 58
1489 1372 58
1490 1372 40
1491 1372 40
1492 1372 26
1493 1372 26
1498 1372 26
1499 1372 26
1500 1372 38
1501 1372 38
1502 1372 38
1518 1372 22
1519 1372 21
1520 1372 22
1374 1373 61
1375 1373 60
1376 1373 60
1383 1373 40
1384 1373 40
1385 1373 40
1388 1373 40
1389 1373 40
1399 1373 40
1400 1373 40
1442 1373 26
1443 1373 26
1444 1373 26
1445 1373 26
1450 1373 26
1451 1373 26
1452 1373 26
1481 1373 40
1482 1373 40
1487 1373 40
1488 1373 40
1489 1373 40
1490 1373 40
1491 1373 40
1492 1373 26
1493 1373 26
1498 1373 26
1499 1373 26
1500 1373 26
1501 1373 26
1502 1373 26
1375 1374 60
1376 1374 60
1383 1374 40
1384 1374 40
1385 1374 40
1388 1374 40
1389 1374 40
1399 1374 40
1400 1374 40
1442 1374 26
1443 1374 26
1444 1374 26
1445 1374 26
1450 1374 26
1451 1374 26
1452 1374 26
1481 1374 40
1482 1374 40
1487 1374 40
1488 1374 40
1489 1374 40
1490 1374 40
1491 1374 40
1492 1374 26
1493 1374 26
1498 1374 26
1499 1374 26
1500 1374 26
1501 1374 26
1502 1374 26
1376 1375 88
1378 1375 35
1379 1375 38
1383 1375 40
1384 1375 40
1385 1375 40
1388 1375 40
1389 1375 40
1399 1375 58
1400 1375 58
1403 1375 24
1442 1375 26
1443 1375 26
1444 1375 37
1445 1375 37
1446 1375 12
1447 1375 17
1448 1375 17
1449 1375 15
1450 1375 26
1451 1375 26
1452 1375 26
1481 1375 55
1482 1375 55
1483 1375 19
1484 1375 25
1485 1375 25
1486 1375 21
1487 1375 39
1488 1375 39
1489 1375 39
1490 1375 39
1491 1375 39
1492 1375 36
1493 1375 36
1494 1375 12
1495 1375 17
1496 1375 17
1497 1375 15
1498 1375 25
1499 1375 25
1500 1375 25
1501 1375 25
1502 1375 25
1378 1376 35
1379 1376 38
1383 1376 40
1384 1376 40
1385 1376 40
1388 1376 40
1389 1376 40
1399 1376 58
1400 1376 58
1403 1376 24
1442 1376 26
1443 1376 26
1444 1376 37
1445 1376 37
1446 1376 12
1447 1376 17
1448 1376 17
1449 1376 15
1450 1376 26
1451 1376 26
1452 1376 26
1481 1376 55
1482 1376 55
1483 1376 19
1484 1376 25
1485 1376 25
1486 1376 21
1487 1376 39
1488 1376 39
1489 1376 39
1490 1376 39
1491 1376 39
1492 1376 36
1493 1376 36
1494 1376 12
1495 1376 17
1496 1376 17
1497 1376 15
1498 1376 25
1499 1376 25
1500 1376 25
1501 1376 25
1502 1376 25
1379 1378 37
1402 1378 21
1444 1378 13
1445 1378 13
1447 1378 13
1448 1378 13
1449 1378 13
1481 1378 22
1482 1378 22
1484 1378 21
1485 1378 21
1486 1378 20
1492 1378 16
1493 1378 16
1495 1378 16
1496 1378 16
1497 1378 16
1399 1379 25
1400 1379 25
1402 1379 24
1403 1379 25
1444 1379 16
1445 1379 16
1447 1379 16
1448 1379 16
1449 1379 16
1481 1379 25
1482 1379 25
1484 1379 24
1485 1379 24
1486 1379 23
1492 1379 16
1493 1379 16
1495 1379 16
1496 1379 16
1497 1379 16
1381 1380 55
1382 1380 55
1383 1380 55
1384 1380 55
1385 1380 55
1386 1380 42
1387 1380 37
1388 1380 37
1389 1380 37
1390 1380 42
1394 1380 18
1399 1380 42
1400 1380 42
1419 1380 27
1420 1380 24
1421 1380 27
1424 1380 11
1425 1380 11
1426 1380 39
1427 1380 36
1428 1380 36
1429 1380 22
1430 1380 21
1431 1380 22
1442 1380 24
1443 1380 24
1444 1380 27
1445 1380 27
1450 1380 36
1451 1380 36
1452 1380 36
1453 1380 21
1454 1380 22
1455 1380 22
1382 1381 55
1383 1381 55
1384 1381 55
1385 1381 55
1386 1381 37
1387 1381 37
1388 1381 37
1389 1381 37
1390 1381 37
1399 1381 37
1400 1381 37
1419 1381 24
1420 1381 24
1421 1381 24
1426 1381 36
1427 1381 36
1428 1381 36
1429 1381 22
1430 1381 21
1431 1381 22
1442 1381 24
1443 1381 24
1444 1381 24
1445 1381 24
1450 1381 36
1451 1381 36
1452 1381 36
1453 1381 21
1454 1381 22
1455 1381 22
1383 1382 55
1384 1382 55
1385 1382 55
1386 1382 37
1387 1382 37
1388 1382 37
1389 1382 37
1390 1382 37
1399 1382 37
1400 1382 37
1419 1382 24
1420 1382 24
1421 1382 24
1426 1382 36
1427 1382 36
1428 1382 36
1429 1382 22
1430 1382 21
1431 1382 22
1442 1382 24
1443 1382 24
1444 1382 24
1445 1382 24
1450 1382 36
1451 1382 36
1452 1382 36
1453 1382 21
1454 1382 22
1455 1382 22
1384 1383 85
1385 1383 85
1386 1383 37
1387 1383 37
1388 1383 58
1389 1383 58
1390 1383 37
1399 1383 58
1400 1383 58
1419 1383 24
1420 1383 24
1421 1383 24
1426 1383 36
1427 1383 36
1428 1383 36
1429 1383 22
1430 1383 21
1431 1383 22
1442 1383 38
1443 1383 38
1444 1383 38
1445 1383 38
1450 1383 56
1451 1383 56
1452 1383 56
1453 1383 33
1454 1383 34
1455 1383 34
1467 1383 22
1468 1383 22
1469 1383 22
1481 1383 26
1482 1383 26
1487 1383 38
1488 1383 38
1489 1383 38
1490 1383 26
1491 1383 26
1385 1384 85
1386 1384 37
1387 1384 37
1388 1384 58
1389 1384 58
1390 1384 37
1399 1384 58
1400 1384 58
1419 1384 24
1420 1384 24
1421 1384 24
1426 1384 36
1427 1384 36
1428 1384 36
1429 1384 22
1430 1384 21
1431 1384 22
1442 1384 38
1443 1384 38
1444 1384 38
1445 1384 38
1450 1384 56
1451 1384 56
1452 1384 56
1453 1384 33
1454 1384 34
1455 1384 34
1467 1384 22
1468 1384 22
1469 1384 22
1481 1384 26
1482 1384 26
1487 1384 38
1488 1384 38
1489 1384 38
1490 1384 26
1491 1384 26
1386 1385 37
1387 1385 37
1388 1385 58
1389 1385 58
1390 1385 37
1399 1385 58
1400 1385 58
1419 1385 24
1420 1385 24
1421 1385 24
1426 1385 36
1427 1385 36
1428 1385 36
1429 1385 22
1430 1385 21
1431 1385 22
1442 1385 38
1443 1385 38
1444 1385 38
1445 1385 38
1450 1385 56
1451 1385 56
1452 1385 56
1453 1385 33
1454 1385 34
1455 1385 34
1467 1385 22
1468 1385 22
1469 1385 22
1481 1385 26
1482 1385 26
1487 1385 38
1488 1385 38
1489 1385 38
1490 1385 26
1491 1385 26
1387 1386 37
1388 1386 37
1389 1386 37
1390 1386 58
1391 1386 10
1394 1386 28
1399 1386 58
1400 1386 58
1401 1386 10
1402 1386 25
1403 1386 25
1419 1386 35
1420 1386 24
1421 1386 34
1422 1386 11
1423 1386 17
1424 1386 19
1425 1386 17
1426 1386 27
1427 1386 24
1428 1386 24
1442 1386 24
1443 1386 24
1444 1386 35
1445 1386 35
1446 1386 12
1447 1386 17
1448 1386 17
1449 1386 15
1450 1386 24
1451 1386 24
1452 1386 24
1388 1387 37
1389 1387 37
1390 1387 37
1399 1387 37
1400 1387 37
1419 1387 24
1420 1387 24
1421 1387 24
1426 1387 24
1427 1387 24
1428 1387 24
1442 1387 24
1443 1387 24
1444 1387 24
1445 1387 24
1450 1387 24
1451 1387 24
1452 1387 24
1389 1388 58
1390 1388 37
1399 1388 58
1400 1388 58
1419 1388 24
1420 1388 24
1421 1388 24
1426 1388 24
1427 1388 24
1428 1388 24
1442 1388 38
1443 1388 38
1444 1388 38
1445 1388 38
1450 1388 38
1451 1388 38
1452 1388 38
1481 1388 26
1482 1388 26
1487 1388 26
1488 1388 26
1489 1388 26
1490 1388 26
1491 1388 26
1390 1389 37
1399 1389 58
1400 1389 58
1419 1389 24
1420 1389 24
1421 1389 24
1426 1389 24
1427 1389 24
1428 1389 24
1442 1389 38
1443 1389 38
1444 1389 38
1445 1389 38
1450 1389 38
1451 1389 38
1452 1389 38
1481 1389 26
1482 1389 26
1487 1389 26
1488 1389 26
1489 1389 26
1490 1389 26
1491 1389 26
1391 1390 10
1394 1390 28
1399 1390 58
1400 1390 58
1401 1390 10
1402 1390 25
1403 1390 25
1419 1390 35
1420 1390 24
1421 1390 34
1422 1390 11
1423 1390 17
1424 1390 19
1425 1390 17
1426 1390 27
1427 1390 24
1428 1390 24
1442 1390 24
1443 1390 24
1444 1390 35
1445 1390 35
1446 1390 12
1447 1390 17
1448 1390 17
1449 1390 15
1450 1390 24
1451 1390 24
1452 1390 24
1399 1391 10
1400 1391 10
1401 1391 10
1393 1392 25
1394 1392 25
1399 1392 25
1400 1392 25
1402 1392 25
1403 1392 25
1419 1392 15
1421 1392 15
1423 1392 15
1424 1392 15
1425 1392 15
1444 1392 15
1445 1392 15
1447 1392 15
1448 1392 15
1449 1392 15
1394 1393 25
1399 1393 25
1400 1393 25
1402 1393 25
1403 1393 25
1419 1393 15
1421 1393 15
1423 1393 15
1424 1393 15
1425 1393 15
1444 1393 15
1445 1393 15
1447 1393 15
1448 1393 15
1449 1393 15
1399 1394 30
1400 1394 30
1402 1394 27
1403 1394 27
1419 1394 19
1421 1394 19
1423 1394 17
1424 1394 19
1425 1394 19
1426 1394 11
1444 1394 19
1445 1394 19
1447 1394 17
1448 1394 17
1449 1394 17
1400 1399 90
1401 1399 10
1402 1399 38
1403 1399 40
1419 1399 37
1420 1399 24
1421 1399 36
1422 1399 11
1423 1399 19
1424 1399 21
1425 1399 19
1426 1399 27
1427 1399 24
1428 1399 24
1442 1399 38
1443 1399 38
1444 1399 56
1445 1399 56
1446 1399 19
1447 1399 28
1448 1399 28
1449 1399 25
1450 1399 38
1451 1399 38
1452 1399 38
1481 1399 37
1482 1399 37
1483 1399 12
1484 1399 16
1485 1399 16
1486 1399 13
1487 1399 26
1488 1399 26
1489 1399 26
1490 1399 26
1491 1399 26
1401 1400 10
1402 1400 38
1403 1400 40
1419 1400 37
1420 1400 24
1421 1400 36
1422 1400 11
1423 1400 19
1424 1400 21
1425 1400 19
1426 1400 27
1427 1400 24
1428 1400 24
1442 1400 38
1443 1400 38
1444 1400 56
1445 1400 56
1446 1400 19
1447 1400 28
1448 1400 28
1449 1400 25
1450 1400 38
1451 1400 38
1452 1400 38
1481 1400 37
1482 1400 37
1483 1400 12
1484 1400 16
1485 1400 16
1486 1400 13
1487 1400 26
1488 1400 26
1489 1400 26
1490 1400 26
1491 1400 26
1403 1402 38
1419 1402 17
1421 1402 17
1423 1402 17
1424 1402 17
1425 1402 17
1444 1402 24
1445 1402 24
1447 1402 24
1448 1402 24
1449 1402 24
1481 1402 14
1482 1402 14
1484 1402 13
1485 1402 13
1486 1402 12
1419 1403 17
1421 1403 17
1423 1403 17
1424 1403 17
1425 1403 17
1444 1403 25
1445 1403 25
1447 1403 25
1448 1403 25
1449 1403 25
1481 1403 15
1482 1403 15
1484 1403 14
1485 1403 14
1486 1403 13
1408 1407 10
1432 1407 10
1434 1407 10
1440 1407 10
1441 1407 10
1577 1407 10
1578 1407 10
1579 1407 10
1584 1407 10
1585 1407 10
1599 1407 10
1432 1408 10
1434 1408 10
1440 1408 10
1441 1408 10
1577 1408 10
1578 1408 10
1579 1408 10
1584 1408 10
1585 1408 10
1599 1408 10
1413 1412 10
1417 1412 10
1418 1412 10
1426 1412 10
1429 1412 10
1561 1412 10
1562 1412 10
1569 1412 10
1570 1412 10
1602 1412 10
1636 1412 10
1417 1413 10
1418 1413 10
1426 1413 10
1429 1413 10
1561 1413 10
1562 1413 10
1569 1413 10
1570 1413 10
1602 1413 10
1636 1413 10
1418 1417 16
1419 1417 10
1424 1417 10
1425 1417 10
1426 1417 16
1429 1417 10
1561 1417 16
1562 1417 16
1569 1417 10
1570 1417 10
1602 1417 10
1632 1417 10
1633 1417 10
1636 1417 16
1648 1417 10
1419 1418 10
1424 1418 10
1425 1418 10
1426 1418 16
1429 1418 10
1561 1418 16
1562 1418 16
1569 1418 10
1570 1418 10
1602 1418 10
1632 1418 10
1633 1418 10
1636 1418 16
1648 1418 10
1420 1419 37
1421 1419 54
1422 1419 15
1423 1419 28
1424 1419 35
1425 1419 33
1426 1419 46
1427 1419 37
1428 1419 37
1442 1419 37
1443 1419 37
1444 1419 55
1445 1419 55
1446 1419 16
1447 1419 28
1448 1419 28
1449 1419 26
1450 1419 37
1451 1419 37
1452 1419 37
1561 1419 10
1562 1419 10
1629 1419 37
1631 1419 17
1632 1419 23
1633 1419 23
1636 1419 32
1637 1419 24
1638 1419 24
1648 1419 41
1649 1419 24
1719 1419 24
1720 1419 24
1721 1419 24
1730 1419 37
1731 1419 37
1733 1419 17
1734 1419 17
1737 1419 24
1738 1419 24
1421 1420 37
1426 1420 37
1427 1420 37
1428 1420 37
1442 1420 37
1443 1420 37
1444 1420 37
1445 1420 37
1450 1420 37
1451 1420 37
1452 1420 37
1629 1420 24
1636 1420 24
1637 1420 24
1638 1420 24
1648 1420 24
1649 1420 24
1719 1420 24
1720 1420 24
1721 1420 24
1730 1420 24
1731 1420 24
1737 1420 24
1738 1420 24
1423 1421 27
1424 1421 30
1425 1421 29
1426 1421 42
1427 1421 37
1428 1421 37
1442 1421 37
1443 1421 37
1444 1421 54
1445 1421 54
1446 1421 15
1447 1421 27
1448 1421 27
1449 1421 26
1450 1421 37
1451 1421 37
1452 1421 37
1629 1421 36
1631 1421 17
1632 1421 19
1633 1421 19
1636 1421 28
1637 1421 24
1638 1421 24
1648 1421 36
1649 1421 24
1719 1421 24
1720 1421 24
1721 1421 24
1730 1421 36
1731 1421 36
1733 1421 17
1734 1421 17
1737 1421 24
1738 1421 24
1423 1422 15
1424 1422 15
1444 1422 15
1445 1422 15
1446 1422 15
1447 1422 15
1448 1422 15
1629 1422 11
1648 1422 11
1730 1422 11
1731 1422 11
1424 1423 28
1425 1423 26
1444 1423 28
1445 1423 28
1446 1423 16
1447 1423 28
1448 1423 28
1449 1423 26
1629 1423 19
1631 1423 17
1632 1423 17
1633 1423 17
1648 1423 19
1730 1423 19
1731 1423 19
1733 1423 17
1734 1423 17
1425 1424 33
1426 1424 22
1444 1424 31
1445 1424 31
1446 1424 16
1447 1424 28
1448 1424 28
1449 1424 26
1561 1424 10
1562 1424 10
1629 1424 21
1631 1424 17
1632 1424 23
1633 1424 23
1636 1424 16
1648 1424 25
1730 1424 21
1731 1424 21
1733 1424 17
1734 1424 17
1426 1425 22
1444 1425 29
1445 1425 29
1447 1425 26
1448 1425 26
1449 1425 26
1561 1425 10
1562 1425 10
1629 1425 19
1631 1425 17
1632 1425 23
1633 1425 23
1636 1425 16
1648 1425 23
1730 1425 19
1731 1425 19
1733 1425 17
1734 1425 17
1427 1426 55
1428 1426 55
1429 1426 42
1430 1426 32
1431 1426 34
1442 1426 37
1443 1426 37
1444 1426 42
1445 1426 42
1450 1426 55
1451 1426 55
1452 1426 55
1453 1426 33
1454 1426 34
1455 1426 34
1561 1426 16
1562 1426 16
1569 1426 10
1570 1426 10
1602 1426 30
1603 1426 22
1604 1426 22
1629 1426 28
1632 1426 16
1633 1426 16
1636 1426 48
1637 1426 36
1638 1426 36
1648 1426 32
1649 1426 24
1692 1426 21
1693 1426 22
1694 1426 22
1719 1426 36
1720 1426 36
1721 1426 36
1730 1426 28
1731 1426 28
1737 1426 24
1738 1426 24
1428 1427 55
1429 1427 34
1430 1427 32
1431 1427 34
1442 1427 37
1443 1427 37
1444 1427 37
1445 1427 37
1450 1427 55
1451 1427 55
1452 1427 55
1453 1427 33
1454 1427 34
1455 1427 34
1602 1427 22
1603 1427 22
1604 1427 22
1629 1427 24
1636 1427 36
1637 1427 36
1638 1427 36
1648 1427 24
1649 1427 24
1692 1427 21
1693 1427 22
1694 1427 22
1719 1427 36
1720 1427 36
1721 1427 36
1730 1427 24
1731 1427 24
1737 1427 24
1738 1427 24
1429 1428 34
1430 1428 32
1431 1428 34
1442 1428 37
1443 1428 37
1444 1428 37
1445 1428 37
1450 1428 55
1451 1428 55
1452 1428 55
1453 1428 33
1454 1428 34
1455 1428 34
1602 1428 22
1603 1428 22
1604 1428 22
1629 1428 24
1636 1428 36
1637 1428 36
1638 1428 36
1648 1428 24
1649 1428 24
1692 1428 21
1693 1428 22
1694 1428 22
1719 1428 36
1720 1428 36
1721 1428 36
1730 1428 24
1731 1428 24
1737 1428 24
1738 1428 24
1430 1429 50
1431 1429 52
1434 1429 34
1435 1429 34
1436 1429 34
1450 1429 34
1451 1429 34
1452 1429 34
1453 1429 51
1454 1429 52
1455 1429 52
1464 1429 34
1465 1429 34
1466 1429 34
1561 1429 10
1562 1429 10
1569 1429 10
1570 1429 10
1599 1429 22
1600 1429 22
1601 1429 22
1602 1429 42
1603 1429 34
1604 1429 34
1636 1429 30
1637 1429 22
1638 1429 22
1665 1429 22
1666 1429 22
1667 1429 22
1692 1429 33
1693 1429 34
1694 1429 34
1719 1429 22
1720 1429 22
1721 1429 22
1431 1430 50
1434 1430 32
1435 1430 32
1436 1430 32
1450 1430 32
1451 1430 32
1452 1430 32
1454 1430 50
1455 1430 50
1464 1430 32
1465 1430 32
1466 1430 32
1599 1430 20
1600 1430 20
1601 1430 20
1602 1430 32
1603 1430 32
1604 1430 32
1636 1430 20
1637 1430 20
1638 1430 20
1665 1430 20
1666 1430 20
1667 1430 20
1693 1430 32
1694 1430 32
1719 1430 20
1720 1430 20
1721 1430 20
1434 1431 34
1435 1431 34
1436 1431 34
1450 1431 34
1451 1431 34
1452 1431 34
1453 1431 51
1454 1431 52
1455 1431 52
1464 1431 34
1465 1431 34
1466 1431 34
1599 1431 22
1600 1431 22
1601 1431 22
1602 1431 34
1603 1431 34
1604 1431 34
1636 1431 22
1637 1431 22
1638 1431 22
1665 1431 22
1666 1431 22
1667 1431 22
1692 1431 33
1693 1431 34
1694 1431 34
1719 1431 22
1720 1431 22
1721 1431 22
1433 1432 37
1434 1432 46
1435 1432 37
1436 1432 37
1437 1432 57
1438 1432 18
1439 1432 28
1440 1432 35
1441 1432 33
1456 1432 57
1457 1432 57
1458 1432 18
1459 1432 27
1460 1432 28
1461 1432 25
1462 1432 37
1463 1432 37
1464 1432 37
1465 1432 37
1466 1432 37
1577 1432 10
1578 1432 10
1579 1432 41
1580 1432 24
1581 1432 37
1583 1432 17
1584 1432 23
1585 1432 23
1599 1432 32
1600 1432 24
1601 1432 24
1658 1432 24
1659 1432 24
1660 1432 37
1661 1432 37
1663 1432 17
1664 1432 17
1665 1432 24
1666 1432 24
1667 1432 24
1434 1433 37
1435 1433 37
1436 1433 37
1437 1433 37
1456 1433 37
1457 1433 37
1462 1433 37
1463 1433 37
1464 1433 37
1465 1433 37
1466 1433 37
1579 1433 24
1580 1433 24
1581 1433 24
1599 1433 24
1600 1433 24
1601 1433 24
1658 1433 24
1659 1433 24
1660 1433 24
1661 1433 24
1665 1433 24
1666 1433 24
1667 1433 24
1435 1434 55
1436 1434 55
1437 1434 42
1440 1434 22
1441 1434 22
1453 1434 33
1454 1434 34
1455 1434 34
1456 1434 42
1457 1434 42
1462 1434 37
1463 1434 37
1464 1434 55
1465 1434 55
1466 1434 55
1577 1434 10
1578 1434 10
1579 1434 32
1580 1434 24
1581 1434 28
1584 1434 16
1585 1434 16
1599 1434 44
1600 1434 36
1601 1434 36
1602 1434 22
1603 1434 22
1604 1434 22
1658 1434 24
1659 1434 24
1660 1434 28
1661 1434 28
1665 1434 36
1666 1434 36
1667 1434 36
1692 1434 21
1693 1434 22
1694 1434 22
1436 1435 55
1437 1435 37
1453 1435 33
1454 1435 34
1455 1435 34
1456 1435 37
1457 1435 37
1462 1435 37
1463 1435 37
1464 1435 55
1465 1435 55
1466 1435 55
1579 1435 24
1580 1435 24
1581 1435 24
1599 1435 36
1600 1435 36
1601 1435 36
1602 1435 22
1603 1435 22
1604 1435 22
1658 1435 24
1659 1435 24
1660 1435 24
1661 1435 24
1665 1435 36
1666 1435 36
1667 1435 36
1692 1435 21
1693 1435 22
1694 1435 22
1437 1436 37
1453 1436 33
1454 1436 34
1455 1436 34
1456 1436 37
1457 1436 37
1462 1436 37
1463 1436 37
1464 1436 55
1465 1436 55
1466 1436 55
1579 1436 24
1580 1436 24
1581 1436 24
1599 1436 36
1600 1436 36
1601 1436 36
1602 1436 22
1603 1436 22
1604 1436 22
1658 1436 24
1659 1436 24
1660 1436 24
1661 1436 24
1665 1436 36
1666 1436 36
1667 1436 36
1692 1436 21
1693 1436 22
1694 1436 22
1438 1437 18
1439 1437 28
1440 1437 31
1441 1437 29
1456 1437 57
1457 1437 57
1458 1437 18
1459 1437 27
1460 1437 28
1461 1437 25
1462 1437 37
1463 1437 37
1464 1437 37
1465 1437 37
1466 1437 37
1579 1437 37
1580 1437 24
1581 1437 37
1583 1437 17
1584 1437 19
1585 1437 19
1599 1437 28
1600 1437 24
1601 1437 24
1658 1437 24
1659 1437 24
1660 1437 37
1661 1437 37
1663 1437 17
1664 1437 17
1665 1437 24
1666 1437 24
1667 1437 24
1439 1438 16
1440 1438 16
1456 1438 18
1457 1438 18
1458 1438 18
1459 1438 16
1460 1438 16
1579 1438 12
1581 1438 12
1660 1438 12
1661 1438 12
1440 1439 28
1441 1439 26
1456 1439 28
1457 1439 28
1458 1439 16
1459 1439 27
1460 1439 28
1461 1439 25
1579 1439 19
1581 1439 19
1583 1439 17
1584 1439 17
1585 1439 17
1660 1439 19
1661 1439 19
1663 1439 17
1664 1439 17
1441 1440 33
1456 1440 31
1457 1440 31
1458 1440 16
1459 1440 27
1460 1440 28
1461 1440 25
1577 1440 10
1578 1440 10
1579 1440 25
1581 1440 21
1583 1440 17
1584 1440 23
1585 1440 23
1599 1440 16
1660 1440 21
1661 1440 21
1663 1440 17
1664 1440 17
1456 1441 29
1457 1441 29
1459 1441 25
1460 1441 26
1461 1441 25
1577 1441 10
1578 1441 10
1579 1441 23
1581 1441 19
1583 1441 17
1584 1441 23
1585 1441 23
1599 1441 16
1660 1441 19
1661 1441 19
1663 1441 17
1664 1441 17
1443 1442 58
1444 1442 58
1445 1442 58
1450 1442 58
1451 1442 58
1452 1442 58
1481 1442 40
1482 1442 40
1487 1442 40
1488 1442 40
1489 1442 40
1490 1442 40
1491 1442 40
1629 1442 24
1636 1442 24
1637 1442 24
1638 1442 24
1648 1442 24
1649 1442 24
1719 1442 38
1720 1442 38
1721 1442 38
1730 1442 38
1731 1442 38
1737 1442 38
1738 1442 38
1770 1442 26
1771 1442 26
1777 1442 26
1778 1442 26
1790 1442 26
1791 1442 26
1792 1442 26
1444 1443 58
1445 1443 58
1450 1443 58
1451 1443 58
1452 1443 58
1481 1443 40
1482 1443 40
1487 1443 40
1488 1443 40
1489 1443 40
1490 1443 40
1491 1443 40
1629 1443 24
1636 1443 24
1637 1443 24
1638 1443 24
1648 1443 24
1649 1443 24
1719 1443 38
1720 1443 38
1721 1443 38
1730 1443 38
1731 1443 38
1737 1443 38
1738 1443 38
1770 1443 26
1771 1443 26
1777 1443 26
1778 1443 26
1790 1443 26
1791 1443 26
1792 1443 26
1445 1444 86
1446 1444 27
1447 1444 42
1448 1444 42
1449 1444 39
1450 1444 58
1451 1444 58
1452 1444 58
1481 1444 58
1482 1444 58
1483 1444 18
1484 1444 25
1485 1444 25
1486 1444 22
1487 1444 40
1488 1444 40
1489 1444 40
1490 1444 40
1491 1444 40
1629 1444 37
1631 1444 17
1632 1444 19
1633 1444 19
1636 1444 28
1637 1444 24
1638 1444 24
1648 1444 37
1649 1444 24
1719 1444 38
1720 1444 38
1721 1444 38
1730 1444 59
1731 1444 59
1732 1444 10
1733 1444 26
1734 1444 26
1737 1444 38
1738 1444 38
1770 1444 26
1771 1444 26
1777 1444 40
1778 1444 40
1779 1444 10
1780 1444 16
1781 1444 16
1790 1444 26
1791 1444 26
1792 1444 26
1446 1445 27
1447 1445 42
1448 1445 42
1449 1445 39
1450 1445 58
1451 1445 58
1452 1445 58
1481 1445 58
1482 1445 58
1483 1445 18
1484 1445 25
1485 1445 25
1486 1445 22
1487 1445 40
1488 1445 40
1489 1445 40
1490 1445 40
1491 1445 40
1629 1445 37
1631 1445 17
1632 1445 19
1633 1445 19
1636 1445 28
1637 1445 24
1638 1445 24
1648 1445 37
1649 1445 24
1719 1445 38
1720 1445 38
1721 1445 38
1730 1445 59
1731 1445 59
1732 1445 10
1733 1445 26
1734 1445 26
1737 1445 38
1738 1445 38
1770 1445 26
1771 1445 26
1777 1445 40
1778 1445 40
1779 1445 10
1780 1445 16
1781 1445 16
1790 1445 26
1791 1445 26
1792 1445 26
1447 1446 25
1448 1446 25
1481 1446 18
1482 1446 18
1483 1446 18
1484 1446 16
1485 1446 16
1629 1446 12
1648 1446 12
1730 1446 21
1731 1446 21
1732 1446 10
1777 1446 14
1778 1446 14
1779 1446 10
1448 1447 42
1449 1447 39
1481 1447 26
1482 1447 26
1483 1447 16
1484 1447 25
1485 1447 25
1486 1447 22
1629 1447 19
1631 1447 17
1632 1447 17
1633 1447 17
1648 1447 19
1730 1447 29
1731 1447 29
1733 1447 26
1734 1447 26
1777 1447 18
1778 1447 18
1780 1447 16
1781 1447 16
1449 1448 39
1481 1448 26
1482 1448 26
1483 1448 16
1484 1448 25
1485 1448 25
1486 1448 22
1629 1448 19
1631 1448 17
1632 1448 17
1633 1448 17
1648 1448 19
1730 1448 29
1731 1448 29
1733 1448 26
1734 1448 26
1777 1448 18
1778 1448 18
1780 1448 16
1781 1448 16
1481 1449 24
1482 1449 24
1484 1449 23
1485 1449 23
1486 1449 22
1629 1449 17
1631 1449 17
1632 1449 17
1633 1449 17
1648 1449 17
1730 1449 26
1731 1449 26
1733 1449 26
1734 1449 26
1777 1449 16
1778 1449 16
1780 1449 16
1781 1449 16
1451 1450 85
1452 1450 85
1453 1450 51
1454 1450 52
1455 1450 52
1467 1450 34
1468 1450 34
1469 1450 34
1481 1450 40
1482 1450 40
1487 1450 58
1488 1450 58
1489 1450 58
1490 1450 40
1491 1450 40
1602 1450 22
1603 1450 22
1604 1450 22
1629 1450 24
1636 1450 36
1637 1450 36
1638 1450 36
1648 1450 24
1649 1450 24
1692 1450 33
1693 1450 34
1694 1450 34
1719 1450 56
1720 1450 56
1721 1450 56
1730 1450 38
1731 1450 38
1737 1450 38
1738 1450 38
1770 1450 26
1771 1450 26
1777 1450 26
1778 1450 26
1790 1450 38
1791 1450 38
1792 1450 38
1796 1450 22
1797 1450 22
1798 1450 22
1452 1451 85
1453 1451 51
1454 1451 52
1455 1451 52
1467 1451 34
1468 1451 34
1469 1451 34
1481 1451 40
1482 1451 40
1487 1451 58
1488 1451 58
1489 1451 58
1490 1451 40
1491 1451 40
1602 1451 22
1603 1451 22
1604 1451 22
1629 1451 24
1636 1451 36
1637 1451 36
1638 1451 36
1648 1451 24
1649 1451 24
1692 1451 33
1693 1451 34
1694 1451 34
1719 1451 56
1720 1451 56
1721 1451 56
1730 1451 38
1731 1451 38
1737 1451 38
1738 1451 38
1770 1451 26
1771 1451 26
1777 1451 26
1778 1451 26
1790 1451 38
1791 1451 38
1792 1451 38
1796 1451 22
1797 1451 22
1798 1451 22
1453 1452 51
1454 1452 52
1455 1452 52
1467 1452 34
1468 1452 34
1469 1452 34
1481 1452 40
1482 1452 40
1487 1452 58
1488 1452 58
1489 1452 58
1490 1452 40
1491 1452 40
1602 1452 22
1603 1452 22
1604 1452 22
1629 1452 24
1636 1452 36
1637 1452 36
1638 1452 36
1648 1452 24
1649 1452 24
1692 1452 33
1693 1452 34
1694 1452 34
1719 1452 56
1720 1452 56
1721 1452 56
1730 1452 38
1731 1452 38
1737 1452 38
1738 1452 38
1770 1452 26
1771 1452 26
1777 1452 26
1778 1452 26
1790 1452 38
1791 1452 38
1792 1452 38
1796 1452 22
1797 1452 22
1798 1452 22
1454 1453 78
1455 1453 78
1464 1453 51
1465 1453 51
1466 1453 51
1467 1453 52
1468 1453 52
1469 1453 52
1470 1453 34
1471 1453 34
1472 1453 34
1487 1453 34
1488 1453 34
1489 1453 34
1599 1453 21
1600 1453 21
1601 1453 21
1602 1453 33
1603 1453 33
1604 1453 33
1636 1453 21
1637 1453 21
1638 1453 21
1665 1453 33
1666 1453 33
1667 1453 33
1692 1453 50
1693 1453 51
1694 1453 51
1719 1453 33
1720 1453 33
1721 1453 33
1790 1453 22
1791 1453 22
1792 1453 22
1796 1453 34
1797 1453 34
1798 1453 34
1817 1453 22
1818 1453 22
1819 1453 21
1455 1454 79
1464 1454 52
1465 1454 52
1466 1454 52
1467 1454 52
1468 1454 52
1469 1454 52
1470 1454 34
1471 1454 34
1472 1454 34
1487 1454 34
1488 1454 34
1489 1454 34
1599 1454 22
1600 1454 22
1601 1454 22
1602 1454 34
1603 1454 34
1604 1454 34
1636 1454 22
1637 1454 22
1638 1454 22
1665 1454 34
1666 1454 34
1667 1454 34
1692 1454 50
1693 1454 52
1694 1454 52
1719 1454 34
1720 1454 34
1721 1454 34
1790 1454 22
1791 1454 22
1792 1454 22
1796 1454 34
1797 1454 34
1798 1454 34
1817 1454 22
1818 1454 22
1819 1454 21
1464 1455 52
1465 1455 52
1466 1455 52
1467 1455 52
1468 1455 52
1469 1455 52
1470 1455 34
1471 1455 34
1472 1455 34
1487 1455 34
1488 1455 34
1489 1455 34
1599 1455 22
1600 1455 22
1601 1455 22
1602 1455 34
1603 1455 34
1604 1455 34
1636 1455 22
1637 1455 22
1638 1455 22
1665 1455 34
1666 1455 34
1667 1455 34
1692 1455 50
1693 1455 52
1694 1455 52
1719 1455 34
1720 1455 34
1721 1455 34
1790 1455 22
1791 1455 22
1792 1455 22
1796 1455 34
1797 1455 34
1798 1455 34
1817 1455 22
1818 1455 22
1819 1455 21
1457 1456 86
1458 1456 27
1459 1456 41
1460 1456 42
1461 1456 38
1462 1456 58
1463 1456 58
1464 1456 58
1465 1456 58
1466 1456 58
1470 1456 40
1471 1456 40
1472 1456 40
1473 1456 55
1474 1456 53
1475 1456 11
1476 1456 26
1477 1456 25
1478 1456 21
1479 1456 40
1480 1456 40
1579 1456 37
1580 1456 24
1581 1456 37
1583 1456 17
1584 1456 19
1585 1456 19
1599 1456 28
1600 1456 24
1601 1456 24
1658 1456 38
1659 1456 38
1660 1456 57
1661 1456 57
1663 1456 26
1664 1456 26
1665 1456 38
1666 1456 38
1667 1456 38
1802 1456 26
1803 1456 26
1817 1456 26
1818 1456 26
1819 1456 26
1827 1456 38
1828 1456 36
1830 1456 16
1831 1456 14
1458 1457 27
1459 1457 41
1460 1457 42
1461 1457 38
1462 1457 58
1463 1457 58
1464 1457 58
1465 1457 58
1466 1457 58
1470 1457 40
1471 1457 40
1472 1457 40
1473 1457 55
1474 1457 53
1475 1457 11
1476 1457 26
1477 1457 25
1478 1457 21
1479 1457 40
1480 1457 40
1579 1457 37
1580 1457 24
1581 1457 37
1583 1457 17
1584 1457 19
1585 1457 19
1599 1457 28
1600 1457 24
1601 1457 24
1658 1457 38
1659 1457 38
1660 1457 57
1661 1457 57
1663 1457 26
1664 1457 26
1665 1457 38
1666 1457 38
1667 1457 38
1802 1457 26
1803 1457 26
1817 1457 26
1818 1457 26
1819 1457 26
1827 1457 38
1828 1457 36
1830 1457 16
1831 1457 14
1459 1458 25
1460 1458 25
1473 1458 15
1474 1458 16
1475 1458 11
1476 1458 16
1477 1458 15
1579 1458 12
1581 1458 12
1660 1458 19
1661 1458 19
1827 1458 12
1828 1458 12
1460 1459 41
1473 1459 24
1474 1459 22
1475 1459 11
1476 1459 25
1477 1459 24
1478 1459 20
1579 1459 18
1581 1459 18
1583 1459 16
1584 1459 16
1585 1459 16
1660 1459 28
1661 1459 28
1663 1459 25
1664 1459 25
1827 1459 17
1828 1459 15
1830 1459 15
1831 1459 13
1461 1460 38
1473 1460 25
1474 1460 23
1475 1460 11
1476 1460 26
1477 1460 25
1478 1460 21
1579 1460 19
1581 1460 19
1583 1460 17
1584 1460 17
1585 1460 17
1660 1460 29
1661 1460 29
1663 1460 26
1664 1460 26
1827 1460 18
1828 1460 16
1830 1460 16
1831 1460 14
1473 1461 23
1474 1461 20
1476 1461 23
1477 1461 23
1478 1461 20
1579 1461 16
1581 1461 16
1583 1461 16
1584 1461 16
1585 1461 16
1660 1461 25
1661 1461 25
1663 1461 25
1664 1461 25
1827 1461 15
1828 1461 13
1830 1461 15
1831 1461 13
1463 1462 58
1464 1462 58
1465 1462 58
1466 1462 58
1470 1462 40
1471 1462 40
1472 1462 40
1473 1462 40
1474 1462 40
1479 1462 40
1480 1462 40
1579 1462 24
1580 1462 24
1581 1462 24
1599 1462 24
1600 1462 24
1601 1462 24
1658 1462 38
1659 1462 38
1660 1462 38
1661 1462 38
1665 1462 38
1666 1462 38
1667 1462 38
1802 1462 26
1803 1462 26
1817 1462 26
1818 1462 26
1819 1462 26
1827 1462 26
1828 1462 26
1464 1463 58
1465 1463 58
1466 1463 58
1470 1463 40
1471 1463 40
1472 1463 40
1473 1463 40
1474 1463 40
1479 1463 40
1480 1463 40
1579 1463 24
1580 1463 24
1581 1463 24
1599 1463 24
1600 1463 24
1601 1463 24
1658 1463 38
1659 1463 38
1660 1463 38
1661 1463 38
1665 1463 38
1666 1463 38
1667 1463 38
1802 1463 26
1803 1463 26
1817 1463 26
1818 1463 26
1819 1463 26
1827 1463 26
1828 1463 26
1465 1464 85
1466 1464 85
1467 1464 34
1468 1464 34
1469 1464 34
1470 1464 58
1471 1464 58
1472 1464 58
1473 1464 40
1474 1464 40
1479 1464 40
1480 1464 40
1579 1464 24
1580 1464 24
1581 1464 24
1599 1464 36
1600 1464 36
1601 1464 36
1602 1464 22
1603 1464 22
1604 1464 22
1658 1464 38
1659 1464 38
1660 1464 38
1661 1464 38
1665 1464 56
1666 1464 56
1667 1464 56
1692 1464 32
1693 1464 34
1694 1464 34
1796 1464 22
1797 1464 22
1798 1464 22
1802 1464 26
1803 1464 26
1817 1464 38
1818 1464 38
1819 1464 37
1827 1464 26
1828 1464 26
1466 1465 85
1467 1465 34
1468 1465 34
1469 1465 34
1470 1465 58
1471 1465 58
1472 1465 58
1473 1465 40
1474 1465 40
1479 1465 40
1480 1465 40
1579 1465 24
1580 1465 24
1581 1465 24
1599 1465 36
1600 1465 36
1601 1465 36
1602 1465 22
1603 1465 22
1604 1465 22
1658 1465 38
1659 1465 38
1660 1465 38
1661 1465 38
1665 1465 56
1666 1465 56
1667 1465 56
1692 1465 32
1693 1465 34
1694 1465 34
1796 1465 22
1797 1465 22
1798 1465 22
1802 1465 26
1803 1465 26
1817 1465 38
1818 1465 38
1819 1465 37
1827 1465 26
1828 1465 26
1467 1466 34
1468 1466 34
1469 1466 34
1470 1466 58
1471 1466 58
1472 1466 58
1473 1466 40
1474 1466 40
1479 1466 40
1480 1466 40
1579 1466 24
1580 1466 24
1581 1466 24
1599 1466 36
1600 1466 36
1601 1466 36
1602 1466 22
1603 1466 22
1604 1466 22
1658 1466 38
1659 1466 38
1660 1466 38
1661 1466 38
1665 1466 56
1666 1466 56
1667 1466 56
1692 1466 32
1693 1466 34
1694 1466 34
1796 1466 22
1797 1466 22
1798 1466 22
1802 1466 26
1803 1466 26
1817 1466 38
1818 1466 38
1819 1466 37
1827 1466 26
1828 1466 26
1468 1467 78
1469 1467 78
1470 1467 51
1471 1467 51
1472 1467 51
1487 1467 51
1488 1467 51
1489 1467 51
1500 1467 33
1501 1467 33
1502 1467 33
1518 1467 51
1519 1467 49
1520 1467 51
1540 1467 33
1541 1467 33
1542 1467 33
1665 1467 22
1666 1467 22
1667 1467 22
1692 1467 33
1693 1467 34
1694 1467 34
1719 1467 22
1720 1467 22
1721 1467 22
1790 1467 33
1791 1467 33
1792 1467 33
1796 1467 51
1797 1467 51
1798 1467 50
1817 1467 33
1818 1467 33
1819 1467 32
1876 1467 21
1877 1467 21
1878 1467 21
1909 1467 33
1911 1467 33
1935 1467 21
1936 1467 21
1937 1467 21
1469 1468 79
1470 1468 52
1471 1468 52
1472 1468 52
1487 1468 52
1488 1468 52
1489 1468 52
1500 1468 34
1501 1468 34
1502 1468 34
1518 1468 52
1519 1468 50
1520 1468 52
1540 1468 34
1541 1468 34
1542 1468 34
1665 1468 22
1666 1468 22
1667 1468 22
1692 1468 33
1693 1468 34
1694 1468 34
1719 1468 22
1720 1468 22
1721 1468 22
1790 1468 34
1791 1468 34
1792 1468 34
1796 1468 52
1797 1468 52
1798 1468 51
1817 1468 34
1818 1468 34
1819 1468 33
1876 1468 22
1877 1468 22
1878 1468 22
1909 1468 34
1910 1468 33
1911 1468 34
1935 1468 22
1936 1468 22
1937 1468 22
1470 1469 52
1471 1469 52
1472 1469 52
1487 1469 52
1488 1469 52
1489 1469 52
1500 1469 34
1501 1469 34
1502 1469 34
1518 1469 52
1519 1469 50
1520 1469 52
1540 1469 34
1541 1469 34
1542 1469 34
1665 1469 22
1666 1469 22
1667 1469 22
1692 1469 33
1693 1469 34
1694 1469 34
1719 1469 22
1720 1469 22
1721 1469 22
1790 1469 34
1791 1469 34
1792 1469 34
1796 1469 52
1797 1469 52
1798 1469 51
1817 1469 34
1818 1469 34
1819 1469 33
1876 1469 22
1877 1469 22
1878 1469 22
1909 1469 34
1910 1469 33
1911 1469 34
1935 1469 22
1936 1469 22
1937 1469 22
1471 1470 88
1472 1470 88
1473 1470 61
1474 1470 61
1479 1470 61
1480 1470 61
1518 1470 34
1519 1470 32
1520 1470 34
1534 1470 40
1535 1470 40
1540 1470 58
1541 1470 58
1542 1470 58
1543 1470 40
1544 1470 40
1658 1470 26
1659 1470 26
1660 1470 26
1661 1470 26
1665 1470 38
1666 1470 38
1667 1470 38
1692 1470 21
1693 1470 22
1694 1470 22
1796 1470 34
1797 1470 34
1798 1470 33
1802 1470 40
1803 1470 40
1817 1470 58
1818 1470 58
1819 1470 57
1827 1470 40
1828 1470 40
1909 1470 22
1910 1470 21
1911 1470 22
1935 1470 38
1936 1470 38
1937 1470 38
1953 1470 26
1954 1470 26
1992 1470 26
1993 1470 26
1472 1471 88
1473 1471 61
1474 1471 61
1479 1471 61
1480 1471 61
1518 1471 34
1519 1471 32
1520 1471 34
1534 1471 40
1535 1471 40
1540 1471 58
1541 1471 58
1542 1471 58
1543 1471 40
1544 1471 40
1658 1471 26
1659 1471 26
1660 1471 26
1661 1471 26
1665 1471 38
1666 1471 38
1667 1471 38
1692 1471 21
1693 1471 22
1694 1471 22
1796 1471 34
1797 1471 34
1798 1471 33
1802 1471 40
1803 1471 40
1817 1471 58
1818 1471 58
1819 1471 57
1827 1471 40
1828 1471 40
1909 1471 22
1910 1471 21
1911 1471 22
1935 1471 38
1936 1471 38
1937 1471 38
1953 1471 26
1954 1471 26
1992 1471 26
1993 1471 26
1473 1472 61
1474 1472 61
1479 1472 61
1480 1472 61
1518 1472 34
1519 1472 32
1520 1472 34
1534 1472 40
1535 1472 40
1540 1472 58
1541 1472 58
1542 1472 58
1543 1472 40
1544 1472 40
1658 1472 26
1659 1472 26
1660 1472 26
1661 1472 26
1665 1472 38
1666 1472 38
1667 1472 38
1692 1472 21
1693 1472 22
1694 1472 22
1796 1472 34
1797 1472 34
1798 1472 33
1802 1472 40
1803 1472 40
1817 1472 58
1818 1472 58
1819 1472 57
1827 1472 40
1828 1472 40
1909 1472 22
1910 1472 21
1911 1472 22
1935 1472 38
1936 1472 38
1937 1472 38
1953 1472 26
1954 1472 26
1992 1472 26
1993 1472 26
1474 1473 81
1476 1473 39
1477 1473 39
1478 1473 34
1479 1473 61
1480 1473 61
1534 1473 55
1535 1473 55
1536 1473 15
1537 1473 24
1538 1473 25
1539 1473 23
1540 1473 40
1541 1473 40
1542 1473 40
1543 1473 40
1544 1473 40
1658 1473 26
1659 1473 26
1660 1473 37
1661 1473 37
1663 1473 16
1664 1473 16
1665 1473 26
1666 1473 26
1667 1473 26
1802 1473 40
1803 1473 40
1817 1473 40
1818 1473 40
1819 1473 40
1827 1473 57
1828 1473 55
1830 1473 25
1831 1473 23
1935 1473 26
1936 1473 26
1937 1473 26
1953 1473 37
1954 1473 37
1956 1473 16
1957 1473 16
1992 1473 26
1993 1473 26
1475 1474 18
1476 1474 37
1477 1474 36
1479 1474 61
1480 1474 61
1534 1474 53
1535 1474 53
1536 1474 16
1537 1474 22
1538 1474 23
1539 1474 20
1540 1474 40
1541 1474 40
1542 1474 40
1543 1474 40
1544 1474 40
1658 1474 26
1659 1474 26
1660 1474 36
1661 1474 36
1663 1474 14
1664 1474 14
1665 1474 26
1666 1474 26
1667 1474 26
1802 1474 40
1803 1474 40
1817 1474 40
1818 1474 40
1819 1474 40
1827 1474 56
1828 1474 56
1830 1474 23
1935 1474 26
1936 1474 26
1937 1474 26
1953 1474 36
1954 1474 36
1956 1474 14
1957 1474 14
1992 1474 26
1993 1474 26
1476 1475 18
1534 1475 11
1535 1475 11
1536 1475 11
1537 1475 11
1538 1475 11
1660 1475 10
1661 1475 10
1827 1475 17
1828 1475 17
1953 1475 10
1954 1475 10
1477 1476 39
1478 1476 34
1534 1476 26
1535 1476 26
1536 1476 16
1537 1476 25
1538 1476 26
1539 1476 23
1660 1476 18
1661 1476 18
1663 1476 16
1664 1476 16
1827 1476 28
1828 1476 26
1830 1476 25
1831 1476 23
1953 1476 18
1954 1476 18
1956 1476 16
1957 1476 16
1478 1477 34
1534 1477 25
1535 1477 25
1536 1477 15
1537 1477 24
1538 1477 25
1539 1477 23
1660 1477 17
1661 1477 17
1663 1477 16
1664 1477 16
1827 1477 27
1828 1477 25
1830 1477 25
1831 1477 23
1953 1477 17
1954 1477 17
1956 1477 16
1957 1477 16
1534 1478 21
1535 1478 21
1537 1478 20
1538 1478 21
1539 1478 20
1660 1478 14
1661 1478 14
1663 1478 14
1664 1478 14
1827 1478 23
1830 1478 23
1831 1478 23
1953 1478 14
1954 1478 14
1956 1478 14
1957 1478 14
1480 1479 61
1534 1479 40
1535 1479 40
1540 1479 40
1541 1479 40
1542 1479 40
1543 1479 40
1544 1479 40
1658 1479 26
1659 1479 26
1660 1479 26
1661 1479 26
1665 1479 26
1666 1479 26
1667 1479 26
1802 1479 40
1803 1479 40
1817 1479 40
1818 1479 40
1819 1479 40
1827 1479 40
1828 1479 40
1935 1479 26
1936 1479 26
1937 1479 26
1953 1479 26
1954 1479 26
1992 1479 26
1993 1479 26
1534 1480 40
1535 1480 40
1540 1480 40
1541 1480 40
1542 1480 40
1543 1480 40
1544 1480 40
1658 1480 26
1659 1480 26
1660 1480 26
1661 1480 26
1665 1480 26
1666 1480 26
1667 1480 26
1802 1480 40
1803 1480 40
1817 1480 40
1818 1480 40
1819 1480 40
1827 1480 40
1828 1480 40
1935 1480 26
1936 1480 26
1937 1480 26
1953 1480 26
1954 1480 26
1992 1480 26
1993 1480 26
1482 1481 88
1483 1481 28
1484 1481 39
1485 1481 39
1486 1481 35
1487 1481 61
1488 1481 61
1489 1481 61
1490 1481 61
1491 1481 61
1492 1481 58
1493 1481 58
1494 1481 18
1495 1481 26
1496 1481 26
1497 1481 24
1498 1481 40
1499 1481 40
1500 1481 40
1501 1481 40
1502 1481 40
1719 1481 26
1720 1481 26
1721 1481 26
1730 1481 40
1731 1481 40
1732 1481 10
1733 1481 16
1734 1481 16
1737 1481 26
1738 1481 26
1770 1481 40
1771 1481 40
1777 1481 61
1778 1481 61
1779 1481 16
1780 1481 25
1781 1481 25
1790 1481 40
1791 1481 40
1792 1481 40
1834 1481 40
1835 1481 40
1836 1481 10
1837 1481 15
1838 1481 15
1853 1481 26
1854 1481 26
1876 1481 26
1877 1481 26
1878 1481 26
1483 1482 28
1484 1482 39
1485 1482 39
1486 1482 35
1487 1482 61
1488 1482 61
1489 1482 61
1490 1482 61
1491 1482 61
1492 1482 58
1493 1482 58
1494 1482 18
1495 1482 26
1496 1482 26
1497 1482 24
1498 1482 40
1499 1482 40
1500 1482 40
1501 1482 40
1502 1482 40
1719 1482 26
1720 1482 26
1721 1482 26
1730 1482 40
1731 1482 40
1732 1482 10
1733 1482 16
1734 1482 16
1737 1482 26
1738 1482 26
1770 1482 40
1771 1482 40
1777 1482 61
1778 1482 61
1779 1482 16
1780 1482 25
1781 1482 25
1790 1482 40
1791 1482 40
1792 1482 40
1834 1482 40
1835 1482 40
1836 1482 10
1837 1482 15
1838 1482 15
1853 1482 26
1854 1482 26
1876 1482 26
1877 1482 26
1878 1482 26
1484 1483 25
1485 1483 25
1492 1483 18
1493 1483 18
1494 1483 18
1495 1483 16
1496 1483 16
1730 1483 14
1731 1483 14
1732 1483 10
1777 1483 22
1778 1483 22
1779 1483 16
1834 1483 14
1835 1483 14
1836 1483 10
1485 1484 39
1492 1484 25
1493 1484 25
1494 1484 16
1495 1484 25
1496 1484 25
1497 1484 23
1730 1484 17
1731 1484 17
1733 1484 15
1734 1484 15
1777 1484 27
1778 1484 27
1780 1484 24
1781 1484 24
1834 1484 17
1835 1484 17
1837 1484 14
1838 1484 14
1492 1485 25
1493 1485 25
1494 1485 16
1495 1485 25
1496 1485 25
1497 1485 23
1730 1485 17
1731 1485 17
1733 1485 15
1734 1485 15
1777 1485 27
1778 1485 27
1780 1485 24
1781 1485 24
1834 1485 17
1835 1485 17
1837 1485 14
1838 1485 14
1492 1486 22
1493 1486 22
1495 1486 22
1496 1486 22
1497 1486 22
1730 1486 14
1731 1486 14
1733 1486 14
1734 1486 14
1777 1486 23
1778 1486 23
1780 1486 23
1781 1486 23
1834 1486 14
1835 1486 14
1837 1486 13
1838 1486 13
1488 1487 88
1489 1487 88
1490 1487 61
1491 1487 61
1492 1487 40
1493 1487 40
1498 1487 40
1499 1487 40
1500 1487 58
1501 1487 58
1502 1487 58
1518 1487 34
1519 1487 32
1520 1487 34
1692 1487 22
1693 1487 22
1694 1487 22
1719 1487 38
1720 1487 38
1721 1487 38
1730 1487 26
1731 1487 26
1737 1487 26
1738 1487 26
1770 1487 40
1771 1487 40
1777 1487 40
1778 1487 40
1790 1487 58
1791 1487 58
1792 1487 58
1796 1487 34
1797 1487 34
1798 1487 33
1834 1487 26
1835 1487 26
1853 1487 26
1854 1487 26
1876 1487 38
1877 1487 38
1878 1487 38
1909 1487 22
1910 1487 21
1911 1487 22
1489 1488 88
1490 1488 61
1491 1488 61
1492 1488 40
1493 1488 40
1498 1488 40
1499 1488 40
1500 1488 58
1501 1488 58
1502 1488 58
1518 1488 34
1519 1488 32
1520 1488 34
1692 1488 22
1693 1488 22
1694 1488 22
1719 1488 38
1720 1488 38
1721 1488 38
1730 1488 26
1731 1488 26
1737 1488 26
1738 1488 26
1770 1488 40
1771 1488 40
1777 1488 40
1778 1488 40
1790 1488 58
1791 1488 58
1792 1488 58
1796 1488 34
1797 1488 34
1798 1488 33
1834 1488 26
1835 1488 26
1853 1488 26
1854 1488 26
1876 1488 38
1877 1488 38
1878 1488 38
1909 1488 22
1910 1488 21
1911 1488 22
1490 1489 61
1491 1489 61
1492 1489 40
1493 1489 40
1498 1489 40
1499 1489 40
1500 1489 58
1501 1489 58
1502 1489 58
1518 1489 34
1519 1489 32
1520 1489 34
1692 1489 22
1693 1489 22
1694 1489 22
1719 1489 38
1720 1489 38
1721 1489 38
1730 1489 26
1731 1489 26
1737 1489 26
1738 1489 26
1770 1489 40
1771 1489 40
1777 1489 40
1778 1489 40
1790 1489 58
1791 1489 58
1792 1489 58
1796 1489 34
1797 1489 34
1798 1489 33
1834 1489 26
1835 1489 26
1853 1489 26
1854 1489 26
1876 1489 38
1877 1489 38
1878 1489 38
1909 1489 22
1910 1489 21
1911 1489 22
1491 1490 61
1492 1490 40
1493 1490 40
1498 1490 40
1499 1490 40
1500 1490 40
1501 1490 40
1502 1490 40
1719 1490 26
1720 1490 26
1721 1490 26
1730 1490 26
1731 1490 26
1737 1490 26
1738 1490 26
1770 1490 40
1771 1490 40
1777 1490 40
1778 1490 40
1790 1490 40
1791 1490 40
1792 1490 40
1834 1490 26
1835 1490 26
1853 1490 26
1854 1490 26
1876 1490 26
1877 1490 26
1878 1490 26
1492 1491 40
1493 1491 40
1498 1491 40
1499 1491 40
1500 1491 40
1501 1491 40
1502 1491 40
1719 1491 26
1720 1491 26
1721 1491 26
1730 1491 26
1731 1491 26
1737 1491 26
1738 1491 26
1770 1491 40
1771 1491 40
1777 1491 40
1778 1491 40
1790 1491 40
1791 1491 40
1792 1491 40
1834 1491 26
1835 1491 26
1853 1491 26
1854 1491 26
1876 1491 26
1877 1491 26
1878 1491 26
1493 1492 89
1494 1492 30
1495 1492 42
1496 1492 42
1497 1492 39
1498 1492 58
1499 1492 58
1500 1492 58
1501 1492 58
1502 1492 58
1503 1492 59
1504 1492 37
1505 1492 59
1506 1492 20
1507 1492 28
1508 1492 31
1509 1492 29
1510 1492 43
1511 1492 37
1512 1492 37
1770 1492 26
1771 1492 26
1777 1492 40
1778 1492 40
1779 1492 10
1780 1492 16
1781 1492 16
1790 1492 26
1791 1492 26
1792 1492 26
1834 1492 60
1835 1492 60
1836 1492 16
1837 1492 25
1838 1492 25
1853 1492 38
1854 1492 38
1866 1492 39
1867 1492 24
1868 1492 39
1869 1492 10
1870 1492 17
1871 1492 19
1872 1492 19
1876 1492 38
1877 1492 38
1878 1492 38
1897 1492 28
1898 1492 24
1899 1492 24
1494 1493 30
1495 1493 42
1496 1493 42
1497 1493 39
1498 1493 58
1499 1493 58
1500 1493 58
1501 1493 58
1502 1493 58
1503 1493 59
1504 1493 37
1505 1493 59
1506 1493 20
1507 1493 28
1508 1493 31
1509 1493 29
1510 1493 43
1511 1493 37
1512 1493 37
1770 1493 26
1771 1493 26
1777 1493 40
1778 1493 40
1779 1493 10
1780 1493 16
1781 1493 16
1790 1493 26
1791 1493 26
1792 1493 26
1834 1493 60
1835 1493 60
1836 1493 16
1837 1493 25
1838 1493 25
1853 1493 38
1854 1493 38
1866 1493 39
1867 1493 24
1868 1493 39
1869 1493 10
1870 1493 17
1871 1493 19
1872 1493 19
1876 1493 38
1877 1493 38
1878 1493 38
1897 1493 28
1898 1493 24
1899 1493 24
1495 1494 25
1496 1494 25
1503 1494 20
1505 1494 20
1506 1494 20
1507 1494 16
1508 1494 16
1777 1494 14
1778 1494 14
1779 1494 10
1834 1494 22
1835 1494 22
1836 1494 16
1866 1494 14
1868 1494 14
1869 1494 10
1496 1495 42
1497 1495 39
1503 1495 28
1505 1495 28
1506 1495 16
1507 1495 28
1508 1495 28
1509 1495 26
1777 1495 18
1778 1495 18
1780 1495 16
1781 1495 16
1834 1495 29
1835 1495 29
1837 1495 25
1838 1495 25
1866 1495 19
1868 1495 19
1870 1495 17
1871 1495 17
1872 1495 17
1497 1496 39
1503 1496 28
1505 1496 28
1506 1496 16
1507 1496 28
1508 1496 28
1509 1496 26
1777 1496 18
1778 1496 18
1780 1496 16
1781 1496 16
1834 1496 29
1835 1496 29
1837 1496 25
1838 1496 25
1866 1496 19
1868 1496 19
1870 1496 17
1871 1496 17
1872 1496 17
1503 1497 26
1505 1497 26
1507 1497 26
1508 1497 26
1509 1497 26
1777 1497 16
1778 1497 16
1780 1497 16
1781 1497 16
1834 1497 26
1835 1497 26
1837 1497 25
1838 1497 25
1866 1497 17
1868 1497 17
1870 1497 17
1871 1497 17
1872 1497 17
1499 1498 58
1500 1498 58
1501 1498 58
1502 1498 58
1503 1498 37
1504 1498 37
1505 1498 37
1510 1498 37
1511 1498 37
1512 1498 37
1770 1498 26
1771 1498 26
1777 1498 26
1778 1498 26
1790 1498 26
1791 1498 26
1792 1498 26
1834 1498 38
1835 1498 38
1853 1498 38
1854 1498 38
1866 1498 24
1867 1498 24
1868 1498 24
1876 1498 38
1877 1498 38
1878 1498 38
1897 1498 24
1898 1498 24
1899 1498 24
1500 1499 58
1501 1499 58
1502 1499 58
1503 1499 37
1504 1499 37
1505 1499 37
1510 1499 37
1511 1499 37
1512 1499 37
1770 1499 26
1771 1499 26
1777 1499 26
1778 1499 26
1790 1499 26
1791 1499 26
1792 1499 26
1834 1499 38
1835 1499 38
1853 1499 38
1854 1499 38
1866 1499 24
1867 1499 24
1868 1499 24
1876 1499 38
1877 1499 38
1878 1499 38
1897 1499 24
1898 1499 24
1899 1499 24
1501 1500 85
1502 1500 85
1503 1500 37
1504 1500 37
1505 1500 37
1510 1500 55
1511 1500 54
1512 1500 55
1518 1500 52
1519 1500 50
1520 1500 52
1521 1500 34
1522 1500 34
1523 1500 33
1770 1500 26
1771 1500 26
1777 1500 26
1778 1500 26
1790 1500 38
1791 1500 38
1792 1500 38
1796 1500 22
1797 1500 22
1798 1500 21
1834 1500 38
1835 1500 38
1853 1500 38
1854 1500 38
1866 1500 24
1867 1500 24
1868 1500 24
1876 1500 56
1877 1500 56
1878 1500 56
1897 1500 36
1898 1500 36
1899 1500 36
1909 1500 34
1910 1500 33
1911 1500 34
1920 1500 22
1921 1500 22
1922 1500 22
1502 1501 85
1503 1501 37
1504 1501 37
1505 1501 37
1510 1501 55
1511 1501 54
1512 1501 55
1518 1501 52
1519 1501 50
1520 1501 52
1521 1501 34
1522 1501 34
1523 1501 33
1770 1501 26
1771 1501 26
1777 1501 26
1778 1501 26
1790 1501 38
1791 1501 38
1792 1501 38
1796 1501 22
1797 1501 22
1798 1501 21
1834 1501 38
1835 1501 38
1853 1501 38
1854 1501 38
1866 1501 24
1867 1501 24
1868 1501 24
1876 1501 56
1877 1501 56
1878 1501 56
1897 1501 36
1898 1501 36
1899 1501 36
1909 1501 34
1910 1501 33
1911 1501 34
1920 1501 22
1921 1501 22
1922 1501 22
1503 1502 37
1504 1502 37
1505 1502 37
1510 1502 55
1511 1502 54
1512 1502 55
1518 1502 52
1519 1502 50
1520 1502 52
1521 1502 34
1522 1502 34
1523 1502 33
1770 1502 26
1771 1502 26
1777 1502 26
1778 1502 26
1790 1502 38
1791 1502 38
1792 1502 38
1796 1502 22
1797 1502 22
1798 1502 21
1834 1502 38
1835 1502 38
1853 1502 38
1854 1502 38
1866 1502 24
1867 1502 24
1868 1502 24
1876 1502 56
1877 1502 56
1878 1502 56
1897 1502 36
1898 1502 36
1899 1502 36
1909 1502 34
1910 1502 33
1911 1502 34
1920 1502 22
1921 1502 22
1922 1502 22
1504 1503 37
1505 1503 59
1506 1503 20
1507 1503 28
1508 1503 31
1509 1503 29
1510 1503 43
1511 1503 37
1512 1503 37
1834 1503 39
1835 1503 39
1836 1503 10
1837 1503 16
1838 1503 16
1853 1503 24
1854 1503 24
1866 1503 39
1867 1503 24
1868 1503 39
1869 1503 10
1870 1503 17
1871 1503 19
1872 1503 19
1876 1503 24
1877 1503 24
1878 1503 24
1897 1503 28
1898 1503 24
1899 1503 24
1505 1504 37
1510 1504 37
1511 1504 37
1512 1504 37
1834 1504 24
1835 1504 24
1853 1504 24
1854 1504 24
1866 1504 24
1867 1504 24
1868 1504 24
1876 1504 24
1877 1504 24
1878 1504 24
1897 1504 24
1898 1504 24
1899 1504 24
1506 1505 20
1507 1505 28
1508 1505 31
1509 1505 29
1510 1505 43
1511 1505 37
1512 1505 37
1834 1505 39
1835 1505 39
1836 1505 10
1837 1505 16
1838 1505 16
1853 1505 24
1854 1505 24
1866 1505 39
1867 1505 24
1868 1505 39
1869 1505 10
1870 1505 17
1871 1505 19
1872 1505 19
1876 1505 24
1877 1505 24
1878 1505 24
1897 1505 28
1898 1505 24
1899 1505 24
1507 1506 16
1508 1506 16
1834 1506 14
1835 1506 14
1836 1506 10
1866 1506 14
1868 1506 14
1869 1506 10
1508 1507 28
1509 1507 26
1834 1507 19
1835 1507 19
1837 1507 16
1838 1507 16
1866 1507 19
1868 1507 19
1870 1507 17
1871 1507 17
1872 1507 17
1509 1508 29
1510 1508 19
1834 1508 21
1835 1508 21
1837 1508 16
1838 1508 16
1866 1508 21
1868 1508 21
1870 1508 17
1871 1508 19
1872 1508 19
1897 1508 12
1510 1509 19
1834 1509 19
1835 1509 19
1837 1509 16
1838 1509 16
1866 1509 19
1868 1509 19
1870 1509 17
1871 1509 19
1872 1509 19
1897 1509 12
1511 1510 54
1512 1510 55
1518 1510 34
1519 1510 34
1520 1510 34
1521 1510 34
1522 1510 34
1523 1510 33
1834 1510 28
1835 1510 28
1853 1510 24
1854 1510 24
1866 1510 28
1867 1510 24
1868 1510 28
1871 1510 12
1872 1510 12
1876 1510 36
1877 1510 36
1878 1510 36
1897 1510 40
1898 1510 36
1899 1510 36
1909 1510 22
1910 1510 22
1911 1510 22
1920 1510 22
1921 1510 22
1922 1510 22
1512 1511 54
1518 1511 33
1519 1511 33
1520 1511 33
1521 1511 33
1522 1511 33
1834 1511 24
1835 1511 24
1853 1511 24
1854 1511 24
1866 1511 24
1867 1511 24
1868 1511 24
1876 1511 35
1877 1511 35
1878 1511 35
1897 1511 35
1898 1511 35
1899 1511 35
1909 1511 21
1910 1511 21
1911 1511 21
1920 1511 21
1921 1511 21
1922 1511 21
1518 1512 34
1519 1512 34
1520 1512 34
1521 1512 34
1522 1512 34
1523 1512 33
1834 1512 24
1835 1512 24
1853 1512 24
1854 1512 24
1866 1512 24
1867 1512 24
1868 1512 24
1876 1512 36
1877 1512 36
1878 1512 36
1897 1512 36
1898 1512 36
1899 1512 36
1909 1512 22
1910 1512 22
1911 1512 22
1920 1512 22
1921 1512 22
1922 1512 22
1519 1518 77
1520 1518 79
1521 1518 51
1522 1518 51
1523 1518 51
1529 1518 34
1530 1518 34
1531 1518 32
1540 1518 52
1541 1518 52
1542 1518 52
1790 1518 22
1791 1518 22
1792 1518 22
1796 1518 34
1797 1518 34
1798 1518 33
1817 1518 22
1818 1518 22
1819 1518 22
1876 1518 34
1877 1518 34
1878 1518 34
1897 1518 22
1898 1518 22
1899 1518 22
1909 1518 52
1910 1518 51
1911 1518 52
1920 1518 34
1921 1518 34
1922 1518 34
1935 1518 34
1936 1518 34
1937 1518 34
1996 1518 22
1997 1518 22
1998 1518 22
1520 1519 77
1521 1519 51
1522 1519 51
1523 1519 51
1529 1519 34
1530 1519 34
1531 1519 32
1540 1519 50
1541 1519 50
1542 1519 50
1790 1519 21
1791 1519 21
1792 1519 21
1796 1519 33
1797 1519 33
1817 1519 21
1818 1519 21
1819 1519 21
1876 1519 33
1877 1519 33
1878 1519 33
1897 1519 22
1898 1519 22
1899 1519 22
1909 1519 51
1910 1519 50
1911 1519 51
1920 1519 34
1921 1519 34
1922 1519 34
1935 1519 33
1936 1519 33
1937 1519 33
1996 1519 22
1997 1519 22
1998 1519 22
1521 1520 51
1522 1520 51
1523 1520 51
1529 1520 34
1530 1520 34
1531 1520 32
1540 1520 52
1541 1520 52
1542 1520 52
1790 1520 22
1791 1520 22
1792 1520 22
1796 1520 34
1797 1520 34
1798 1520 33
1817 1520 22
1818 1520 22
1819 1520 22
1876 1520 34
1877 1520 34
1878 1520 34
1897 1520 22
1898 1520 22
1899 1520 22
1909 1520 52
1910 1520 51
1911 1520 52
1920 1520 34
1921 1520 34
1922 1520 34
1935 1520 34
1936 1520 34
1937 1520 34
1996 1520 22
1997 1520 22
1998 1520 22
1522 1521 51
1523 1521 50
1529 1521 33
1530 1521 33
1540 1521 33
1541 1521 33
1542 1521 33
1876 1521 22
1877 1521 22
1878 1521 22
1897 1521 22
1898 1521 22
1899 1521 22
1909 1521 33
1910 1521 33
1911 1521 33
1920 1521 33
1921 1521 33
1922 1521 33
1935 1521 21
1936 1521 21
1937 1521 21
1996 1521 21
1997 1521 21
1998 1521 21
1523 1522 50
1529 1522 33
1530 1522 33
1540 1522 33
1541 1522 33
1542 1522 33
1876 1522 22
1877 1522 22
1878 1522 22
1897 1522 22
1898 1522 22
1899 1522 22
1909 1522 33
1910 1522 33
1911 1522 33
1920 1522 33
1921 1522 33
1922 1522 33
1935 1522 21
1936 1522 21
1937 1522 21
1996 1522 21
1997 1522 21
1998 1522 21
1529 1523 34
1530 1523 34
1531 1523 32
1540 1523 34
1541 1523 34
1542 1523 34
1876 1523 21
1877 1523 21
1878 1523 21
1897 1523 21
1898 1523 21
1899 1523 21
1909 1523 33
1910 1523 33
1911 1523 33
1920 1523 33
1921 1523 33
1922 1523 33
1935 1523 22
1936 1523 22
1937 1523 22
1996 1523 22
1997 1523 22
1998 1523 22
1530 1529 55
1531 1529 53
1532 1529 42
1533 1529 37
1534 1529 42
1535 1529 42
1540 1529 55
1541 1529 55
1542 1529 55
1543 1529 37
1544 1529 37
1550 1529 42
1553 1529 18
1554 1529 18
1909 1529 22
1910 1529 22
1911 1529 22
1920 1529 22
1921 1529 22
1922 1529 22
1935 1529 36
1936 1529 36
1937 1529 36
1953 1529 28
1954 1529 28
1974 1529 28
1977 1529 12
1978 1529 12
1992 1529 24
1993 1529 24
1994 1529 28
1995 1529 24
1996 1529 40
1997 1529 36
1998 1529 36
1531 1530 53
1532 1530 37
1533 1530 37
1534 1530 37
1535 1530 37
1540 1530 55
1541 1530 55
1542 1530 55
1543 1530 37
1544 1530 37
1550 1530 37
1909 1530 22
1910 1530 22
1911 1530 22
1920 1530 22
1921 1530 22
1922 1530 22
1935 1530 36
1936 1530 36
1937 1530 36
1953 1530 24
1954 1530 24
1974 1530 24
1992 1530 24
1993 1530 24
1994 1530 24
1995 1530 24
1996 1530 36
1997 1530 36
1998 1530 36
1532 1531 37
1533 1531 37
1534 1531 37
1535 1531 37
1540 1531 53
1541 1531 53
1542 1531 53
1543 1531 37
1544 1531 37
1550 1531 37
1909 1531 20
1910 1531 20
1911 1531 20
1920 1531 20
1921 1531 20
1922 1531 20
1935 1531 34
1936 1531 34
1937 1531 34
1953 1531 24
1954 1531 24
1974 1531 24
1992 1531 24
1993 1531 24
1994 1531 24
1995 1531 24
1996 1531 34
1997 1531 34
1998 1531 34
1533 1532 37
1534 1532 57
1535 1532 57
1536 1532 18
1537 1532 27
1538 1532 28
1539 1532 25
1540 1532 37
1541 1532 37
1542 1532 37
1543 1532 37
1544 1532 37
1550 1532 57
1551 1532 18
1552 1532 28
1553 1532 31
1554 1532 29
1935 1532 24
1936 1532 24
1937 1532 24
1953 1532 37
1954 1532 37
1956 1532 17
1957 1532 17
1974 1532 37
1976 1532 17
1977 1532 19
1978 1532 19
1992 1532 24
1993 1532 24
1994 1532 37
1995 1532 24
1996 1532 28
1997 1532 24
1998 1532 24
1534 1533 37
1535 1533 37
1540 1533 37
1541 1533 37
1542 1533 37
1543 1533 37
1544 1533 37
1550 1533 37
1935 1533 24
1936 1533 24
1937 1533 24
1953 1533 24
1954 1533 24
1974 1533 24
1992 1533 24
1993 1533 24
1994 1533 24
1995 1533 24
1996 1533 24
1997 1533 24
1998 1533 24
1535 1534 86
1536 1534 27
1537 1534 41
1538 1534 42
1539 1534 38
1540 1534 58
1541 1534 58
1542 1534 58
1543 1534 58
1544 1534 58
1550 1534 57
1551 1534 18
1552 1534 28
1553 1534 31
1554 1534 29
1802 1534 26
1803 1534 26
1817 1534 26
1818 1534 26
1819 1534 26
1827 1534 38
1828 1534 36
1830 1534 16
1831 1534 14
1935 1534 38
1936 1534 38
1937 1534 38
1953 1534 57
1954 1534 57
1956 1534 26
1957 1534 26
1974 1534 37
1976 1534 17
1977 1534 19
1978 1534 19
1992 1534 38
1993 1534 38
1994 1534 37
1995 1534 24
1996 1534 28
1997 1534 24
1998 1534 24
1536 1535 27
1537 1535 41
1538 1535 42
1539 1535 38
1540 1535 58
1541 1535 58
1542 1535 58
1543 1535 58
1544 1535 58
1550 1535 57
1551 1535 18
1552 1535 28
1553 1535 31
1554 1535 29
1802 1535 26
1803 1535 26
1817 1535 26
1818 1535 26
1819 1535 26
1827 1535 38
1828 1535 36
1830 1535 16
1831 1535 14
1935 1535 38
1936 1535 38
1937 1535 38
1953 1535 57
1954 1535 57
1956 1535 26
1957 1535 26
1974 1535 37
1976 1535 17
1977 1535 19
1978 1535 19
1992 1535 38
1993 1535 38
1994 1535 37
1995 1535 24
1996 1535 28
1997 1535 24
1998 1535 24
1537 1536 25
1538 1536 25
1550 1536 18
1551 1536 18
1552 1536 16
1553 1536 16
1827 1536 12
1828 1536 12
1953 1536 19
1954 1536 19
1974 1536 12
1994 1536 12
1538 1537 41
1550 1537 27
1551 1537 16
1552 1537 27
1553 1537 27
1554 1537 25
1827 1537 17
1828 1537 15
1830 1537 15
1831 1537 13
1953 1537 28
1954 1537 28
1956 1537 25
1957 1537 25
1974 1537 18
1976 1537 16
1977 1537 16
1978 1537 16
1994 1537 18
1539 1538 38
1550 1538 28
1551 1538 16
1552 1538 28
1553 1538 28
1554 1538 26
1827 1538 18
1828 1538 16
1830 1538 16
1831 1538 14
1953 1538 29
1954 1538 29
1956 1538 26
1957 1538 26
1974 1538 19
1976 1538 17
1977 1538 17
1978 1538 17
1994 1538 19
1550 1539 25
1552 1539 25
1553 1539 25
1554 1539 25
1827 1539 15
1828 1539 13
1830 1539 15
1831 1539 13
1953 1539 25
1954 1539 25
1956 1539 25
1957 1539 25
1974 1539 16
1976 1539 16
1977 1539 16
1978 1539 16
1994 1539 16
1541 1540 85
1542 1540 85
1543 1540 58
1544 1540 58
1550 1540 37
1796 1540 22
1797 1540 22
1798 1540 21
1802 1540 26
1803 1540 26
1817 1540 38
1818 1540 38
1819 1540 38
1827 1540 26
1828 1540 26
1909 1540 34
1910 1540 33
1911 1540 34
1920 1540 22
1921 1540 22
1922 1540 22
1935 1540 56
1936 1540 56
1937 1540 56
1953 1540 38
1954 1540 38
1974 1540 24
1992 1540 38
1993 1540 38
1994 1540 24
1995 1540 24
1996 1540 36
1997 1540 36
1998 1540 36
1542 1541 85
1543 1541 58
1544 1541 58
1550 1541 37
1796 1541 22
1797 1541 22
1798 1541 21
1802 1541 26
1803 1541 26
1817 1541 38
1818 1541 38
1819 1541 38
1827 1541 26
1828 1541 26
1909 1541 34
1910 1541 33
1911 1541 34
1920 1541 22
1921 1541 22
1922 1541 22
1935 1541 56
1936 1541 56
1937 1541 56
1953 1541 38
1954 1541 38
1974 1541 24
1992 1541 38
1993 1541 38
1994 1541 24
1995 1541 24
1996 1541 36
1997 1541 36
1998 1541 36
1543 1542 58
1544 1542 58
1550 1542 37
1796 1542 22
1797 1542 22
1798 1542 21
1802 1542 26
1803 1542 26
1817 1542 38
1818 1542 38
1819 1542 38
1827 1542 26
1828 1542 26
1909 1542 34
1910 1542 33
1911 1542 34
1920 1542 22
1921 1542 22
1922 1542 22
1935 1542 56
1936 1542 56
1937 1542 56
1953 1542 38
1954 1542 38
1974 1542 24
1992 1542 38
1993 1542 38
1994 1542 24
1995 1542 24
1996 1542 36
1997 1542 36
1998 1542 36
1544 1543 58
1550 1543 37
1802 1543 26
1803 1543 26
1817 1543 26
1818 1543 26
1819 1543 26
1827 1543 26
1828 1543 26
1935 1543 38
1936 1543 38
1937 1543 38
1953 1543 38
1954 1543 38
1974 1543 24
1992 1543 38
1993 1543 38
1994 1543 24
1995 1543 24
1996 1543 24
1997 1543 24
1998 1543 24
1550 1544 37
1802 1544 26
1803 1544 26
1817 1544 26
1818 1544 26
1819 1544 26
1827 1544 26
1828 1544 26
1935 1544 38
1936 1544 38
1937 1544 38
1953 1544 38
1954 1544 38
1974 1544 24
1992 1544 38
1993 1544 38
1994 1544 24
1995 1544 24
1996 1544 24
1997 1544 24
1998 1544 24
1551 1550 18
1552 1550 28
1553 1550 31
1554 1550 29
1935 1550 24
1936 1550 24
1937 1550 24
1953 1550 37
1954 1550 37
1956 1550 17
1957 1550 17
1974 1550 37
1976 1550 17
1977 1550 19
1978 1550 19
1992 1550 24
1993 1550 24
1994 1550 37
1995 1550 24
1996 1550 28
1997 1550 24
1998 1550 24
1552 1551 16
1553 1551 16
1953 1551 12
1954 1551 12
1974 1551 12
1994 1551 12
1553 1552 28
1554 1552 26
1953 1552 19
1954 1552 19
1956 1552 17
1957 1552 17
1974 1552 19
1976 1552 17
1977 1552 17
1978 1552 17
1994 1552 19
1554 1553 29
1953 1553 21
1954 1553 21
1956 1553 17
1957 1553 17
1974 1553 21
1976 1553 17
1977 1553 19
1978 1553 19
1994 1553 21
1996 1553 12
1953 1554 19
1954 1554 19
1956 1554 17
1957 1554 17
1974 1554 19
1976 1554 17
1977 1554 19
1978 1554 19
1994 1554 19
1996 1554 12
1562 1561 16
1569 1561 10
1570 1561 10
1602 1561 10
1632 1561 10
1633 1561 10
1636 1561 16
1648 1561 10
1569 1562 10
1570 1562 10
1602 1562 10
1632 1562 10
1633 1562 10
1636 1562 16
1648 1562 10
1570 1569 10
1602 1569 10
1636 1569 10
1602 1570 10
1636 1570 10
1578 1577 10
1579 1577 10
1584 1577 10
1585 1577 10
1599 1577 10
1579 1578 10
1584 1578 10
1585 1578 10
1599 1578 10
1580 1579 37
1581 1579 55
1583 1579 26
1584 1579 33
1585 1579 33
1586 1579 32
1587 1579 24
1588 1579 32
1590 1579 14
1591 1579 16
1592 1579 18
1599 1579 47
1600 1579 37
1601 1579 37
1605 1579 28
1606 1579 24
1607 1579 24
1658 1579 37
1659 1579 37
1660 1579 55
1661 1579 55
1663 1579 26
1664 1579 26
1665 1579 37
1666 1579 37
1667 1579 37
1668 1579 24
1669 1579 24
1670 1579 34
1671 1579 34
1673 1579 16
1674 1579 16
1682 1579 24
1683 1579 24
1684 1579 24
1581 1580 37
1586 1580 24
1587 1580 24
1588 1580 24
1599 1580 37
1600 1580 37
1601 1580 37
1605 1580 24
1606 1580 24
1607 1580 24
1658 1580 37
1659 1580 37
1660 1580 37
1661 1580 37
1665 1580 37
1666 1580 37
1667 1580 37
1668 1580 24
1669 1580 24
1670 1580 24
1671 1580 24
1682 1580 24
1683 1580 24
1684 1580 24
1583 1581 26
1584 1581 29
1585 1581 29
1586 1581 32
1587 1581 24
1588 1581 32
1590 1581 14
1591 1581 16
1592 1581 18
1599 1581 43
1600 1581 37
1601 1581 37
1605 1581 28
1606 1581 24
1607 1581 24
1658 1581 37
1659 1581 37
1660 1581 55
1661 1581 55
1663 1581 26
1664 1581 26
1665 1581 37
1666 1581 37
1667 1581 37
1668 1581 24
1669 1581 24
1670 1581 34
1671 1581 34
1673 1581 16
1674 1581 16
1682 1581 24
1683 1581 24
1684 1581 24
1584 1583 26
1585 1583 26
1586 1583 14
1588 1583 14
1590 1583 14
1591 1583 14
1592 1583 16
1660 1583 26
1661 1583 26
1663 1583 26
1664 1583 26
1670 1583 16
1671 1583 16
1673 1583 16
1674 1583 16
1585 1584 33
1586 1584 16
1588 1584 16
1590 1584 14
1591 1584 16
1592 1584 18
1599 1584 23
1605 1584 12
1660 1584 29
1661 1584 29
1663 1584 26
1664 1584 26
1670 1584 18
1671 1584 18
1673 1584 16
1674 1584 16
1586 1585 16
1588 1585 16
1590 1585 14
1591 1585 16
1592 1585 18
1599 1585 23
1605 1585 12
1660 1585 29
1661 1585 29
1663 1585 26
1664 1585 26
1670 1585 18
1671 1585 18
1673 1585 16
1674 1585 16
1587 1586 37
1588 1586 51
1592 1586 27
1593 1586 34
1594 1586 33
1595 1586 29
1596 1586 20
1597 1586 22
1598 1586 17
1599 1586 27
1600 1586 24
1601 1586 24
1605 1586 43
1606 1586 37
1607 1586 37
1613 1586 11
1615 1586 28
1616 1586 24
1617 1586 29
1658 1586 24
1659 1586 24
1660 1586 32
1661 1586 32
1663 1586 14
1664 1586 14
1665 1586 24
1666 1586 24
1667 1586 24
1668 1586 37
1669 1586 37
1670 1586 51
1671 1586 51
1673 1586 24
1674 1586 24
1675 1586 33
1676 1586 33
1677 1586 20
1678 1586 20
1679 1586 15
1680 1586 24
1681 1586 29
1682 1586 37
1683 1586 37
1684 1586 37
1689 1586 24
1690 1586 24
1691 1586 29
1588 1587 37
1593 1587 24
1594 1587 24
1595 1587 24
1599 1587 24
1600 1587 24
1601 1587 24
1605 1587 37
1606 1587 37
1607 1587 37
1615 1587 24
1616 1587 24
1617 1587 24
1658 1587 24
1659 1587 24
1660 1587 24
1661 1587 24
1665 1587 24
1666 1587 24
1667 1587 24
1668 1587 37
1669 1587 37
1670 1587 37
1671 1587 37
1675 1587 24
1676 1587 24
1680 1587 24
1681 1587 24
1682 1587 37
1683 1587 37
1684 1587 37
1689 1587 24
1690 1587 24
1691 1587 24
1592 1588 27
1593 1588 33
1594 1588 33
1595 1588 28
1596 1588 19
1597 1588 21
1598 1588 17
1599 1588 27
1600 1588 24
1601 1588 24
1605 1588 42
1606 1588 37
1607 1588 37
1615 1588 27
1616 1588 24
1617 1588 28
1658 1588 24
1659 1588 24
1660 1588 32
1661 1588 32
1663 1588 14
1664 1588 14
1665 1588 24
1666 1588 24
1667 1588 24
1668 1588 37
1669 1588 37
1670 1588 51
1671 1588 51
1673 1588 24
1674 1588 24
1675 1588 33
1676 1588 33
1677 1588 19
1678 1588 19
1679 1588 15
1680 1588 24
1681 1588 28
1682 1588 37
1683 1588 37
1684 1588 37
1689 1588 24
1690 1588 24
1691 1588 28
1591 1590 24
1592 1590 24
1593 1590 15
1594 1590 15
1596 1590 15
1597 1590 15
1598 1590 15
1660 1590 14
1661 1590 14
1663 1590 14
1664 1590 14
1670 1590 24
1671 1590 24
1673 1590 24
1674 1590 24
1675 1590 15
1676 1590 15
1677 1590 15
1678 1590 15
1679 1590 15
1592 1591 27
1593 1591 17
1594 1591 17
1596 1591 15
1597 1591 17
1598 1591 17
1599 1591 10
1605 1591 17
1615 1591 10
1660 1591 16
1661 1591 16
1663 1591 14
1664 1591 14
1670 1591 27
1671 1591 27
1673 1591 24
1674 1591 24
1675 1591 17
1676 1591 17
1677 1591 15
1678 1591 15
1679 1591 15
1593 1592 19
1594 1592 19
1596 1592 17
1597 1592 19
1598 1592 19
1599 1592 12
1605 1592 19
1615 1592 12
1660 1592 18
1661 1592 18
1663 1592 16
1664 1592 16
1670 1592 29
1671 1592 29
1673 1592 26
1674 1592 26
1675 1592 19
1676 1592 19
1677 1592 17
1678 1592 17
1679 1592 17
1594 1593 35
1595 1593 29
1596 1593 22
1597 1593 24
1598 1593 19
1605 1593 29
1606 1593 24
1607 1593 24
1613 1593 11
1615 1593 29
1616 1593 24
1617 1593 29
1668 1593 24
1669 1593 24
1670 1593 35
1671 1593 35
1673 1593 17
1674 1593 17
1675 1593 35
1676 1593 35
1677 1593 22
1678 1593 22
1679 1593 17
1680 1593 24
1681 1593 29
1682 1593 24
1683 1593 24
1684 1593 24
1689 1593 24
1690 1593 24
1691 1593 29
1595 1594 28
1596 1594 21
1597 1594 23
1598 1594 19
1605 1594 28
1606 1594 24
1607 1594 24
1615 1594 28
1616 1594 24
1617 1594 28
1668 1594 24
1669 1594 24
1670 1594 35
1671 1594 35
1673 1594 17
1674 1594 17
1675 1594 35
1676 1594 35
1677 1594 21
1678 1594 21
1679 1594 17
1680 1594 24
1681 1594 28
1682 1594 24
1683 1594 24
1684 1594 24
1689 1594 24
1690 1594 24
1691 1594 28
1596 1595 27
1597 1595 29
1605 1595 26
1606 1595 24
1607 1595 24
1612 1595 16
1613 1595 20
1615 1595 26
1616 1595 24
1617 1595 38
1668 1595 24
1669 1595 24
1670 1595 28
1671 1595 28
1675 1595 28
1676 1595 28
1677 1595 24
1678 1595 24
1680 1595 24
1681 1595 38
1682 1595 24
1683 1595 24
1684 1595 24
1687 1595 10
1688 1595 10
1689 1595 24
1690 1595 24
1691 1595 32
1597 1596 34
1598 1596 17
1612 1596 16
1613 1596 18
1617 1596 24
1670 1596 21
1671 1596 21
1673 1596 17
1674 1596 17
1675 1596 21
1676 1596 21
1677 1596 31
1678 1596 31
1679 1596 17
1681 1596 24
1687 1596 10
1688 1596 10
1691 1596 18
1598 1597 19
1605 1597 17
1612 1597 16
1613 1597 20
1615 1597 17
1617 1597 26
1670 1597 23
1671 1597 23
1673 1597 17
1674 1597 17
1675 1597 23
1676 1597 23
1677 1597 31
1678 1597 31
1679 1597 17
1681 1597 26
1687 1597 10
1688 1597 10
1691 1597 20
1605 1598 12
1615 1598 12
1670 1598 19
1671 1598 19
1673 1598 17
1674 1598 17
1675 1598 19
1676 1598 19
1677 1598 17
1678 1598 17
1679 1598 17
1600 1599 55
1601 1599 55
1602 1599 34
1603 1599 34
1604 1599 34
1605 1599 40
1606 1599 36
1607 1599 36
1608 1599 22
1609 1599 22
1610 1599 22
1658 1599 37
1659 1599 37
1660 1599 43
1661 1599 43
1665 1599 55
1666 1599 55
1667 1599 55
1668 1599 24
1669 1599 24
1670 1599 28
1671 1599 28
1682 1599 36
1683 1599 36
1684 1599 36
1692 1599 33
1693 1599 34
1694 1599 34
1695 1599 22
1696 1599 22
1697 1599 22
1601 1600 55
1602 1600 34
1603 1600 34
1604 1600 34
1605 1600 36
1606 1600 36
1607 1600 36
1608 1600 22
1609 1600 22
1610 1600 22
1658 1600 37
1659 1600 37
1660 1600 37
1661 1600 37
1665 1600 55
1666 1600 55
1667 1600 55
1668 1600 24
1669 1600 24
1670 1600 24
1671 1600 24
1682 1600 36
1683 1600 36
1684 1600 36
1692 1600 33
1693 1600 34
1694 1600 34
1695 1600 22
1696 1600 22
1697 1600 22
1602 1601 34
1603 1601 34
1604 1601 34
1605 1601 36
1606 1601 36
1607 1601 36
1608 1601 22
1609 1601 22
1610 1601 22
1658 1601 37
1659 1601 37
1660 1601 37
1661 1601 37
1665 1601 55
1666 1601 55
1667 1601 55
1668 1601 24
1669 1601 24
1670 1601 24
1671 1601 24
1682 1601 36
1683 1601 36
1684 1601 36
1692 1601 33
1693 1601 34
1694 1601 34
1695 1601 22
1696 1601 22
1697 1601 22
1603 1602 52
1604 1602 52
1605 1602 22
1606 1602 22
1607 1602 22
1608 1602 34
1609 1602 34
1610 1602 34
1636 1602 42
1637 1602 34
1638 1602 34
1639 1602 22
1640 1602 22
1641 1602 22
1665 1602 34
1666 1602 34
1667 1602 34
1682 1602 22
1683 1602 22
1684 1602 22
1692 1602 51
1693 1602 52
1694 1602 52
1695 1602 34
1696 1602 34
1697 1602 34
1716 1602 22
1717 1602 22
1718 1602 22
1719 1602 34
1720 1602 34
1721 1602 34
1604 1603 52
1605 1603 22
1606 1603 22
1607 1603 22
1608 1603 34
1609 1603 34
1610 1603 34
1636 1603 34
1637 1603 34
1638 1603 34
1639 1603 22
1640 1603 22
1641 1603 22
1665 1603 34
1666 1603 34
1667 1603 34
1682 1603 22
1683 1603 22
1684 1603 22
1692 1603 51
1693 1603 52
1694 1603 52
1695 1603 34
1696 1603 34
1697 1603 34
1716 1603 22
1717 1603 22
1718 1603 22
1719 1603 34
1720 1603 34
1721 1603 34
1605 1604 22
1606 1604 22
1607 1604 22
1608 1604 34
1609 1604 34
1610 1604 34
1636 1604 34
1637 1604 34
1638 1604 34
1639 1604 22
1640 1604 22
1641 1604 22
1665 1604 34
1666 1604 34
1667 1604 34
1682 1604 22
1683 1604 22
1684 1604 22
1692 1604 51
1693 1604 52
1694 1604 52
1695 1604 34
1696 1604 34
1697 1604 34
1716 1604 22
1717 1604 22
1718 1604 22
1719 1604 34
1720 1604 34
1721 1604 34
1606 1605 55
1607 1605 55
1608 1605 34
1609 1605 34
1610 1605 34
1613 1605 10
1615 1605 41
1616 1605 36
1617 1605 38
1626 1605 22
1627 1605 22
1628 1605 23
1658 1605 24
1659 1605 24
1660 1605 28
1661 1605 28
1665 1605 36
1666 1605 36
1667 1605 36
1668 1605 37
1669 1605 37
1670 1605 43
1671 1605 43
1675 1605 28
1676 1605 28
1680 1605 24
1681 1605 26
1682 1605 55
1683 1605 55
1684 1605 55
1689 1605 36
1690 1605 36
1691 1605 38
1692 1605 22
1693 1605 22
1694 1605 22
1695 1605 34
1696 1605 34
1697 1605 34
1706 1605 22
1707 1605 22
1708 1605 23
1607 1606 55
1608 1606 34
1609 1606 34
1610 1606 34
1615 1606 36
1616 1606 36
1617 1606 36
1626 1606 22
1627 1606 22
1628 1606 22
1658 1606 24
1659 1606 24
1660 1606 24
1661 1606 24
1665 1606 36
1666 1606 36
1667 1606 36
1668 1606 37
1669 1606 37
1670 1606 37
1671 1606 37
1675 1606 24
1676 1606 24
1680 1606 24
1681 1606 24
1682 1606 55
1683 1606 55
1684 1606 55
1689 1606 36
1690 1606 36
1691 1606 36
1692 1606 22
1693 1606 22
1694 1606 22
1695 1606 34
1696 1606 34
1697 1606 34
1706 1606 22
1707 1606 22
1708 1606 22
1608 1607 34
1609 1607 34
1610 1607 34
1615 1607 36
1616 1607 36
1617 1607 36
1626 1607 22
1627 1607 22
1628 1607 22
1658 1607 24
1659 1607 24
1660 1607 24
1661 1607 24
1665 1607 36
1666 1607 36
1667 1607 36
1668 1607 37
1669 1607 37
1670 1607 37
1671 1607 37
1675 1607 24
1676 1607 24
1680 1607 24
1681 1607 24
1682 1607 55
1683 1607 55
1684 1607 55
1689 1607 36
1690 1607 36
1691 1607 36
1692 1607 22
1693 1607 22
1694 1607 22
1695 1607 34
1696 1607 34
1697 1607 34
1706 1607 22
1707 1607 22
1708 1607 22
1609 1608 52
1610 1608 52
1615 1608 22
1616 1608 22
1617 1608 22
1626 1608 34
1627 1608 34
1628 1608 34
1636 1608 22
1637 1608 22
1638 1608 22
1639 1608 34
1640 1608 34
1641 1608 34
1650 1608 22
1651 1608 22
1652 1608 22
1665 1608 22
1666 1608 22
1667 1608 22
1682 1608 34
1683 1608 34
1684 1608 34
1689 1608 22
1690 1608 22
1691 1608 22
1692 1608 34
1693 1608 34
1694 1608 34
1695 1608 52
1696 1608 52
1697 1608 52
1706 1608 34
1707 1608 34
1708 1608 34
1716 1608 34
1717 1608 34
1718 1608 34
1719 1608 22
1720 1608 22
1721 1608 22
1727 1608 22
1728 1608 22
1729 1608 22
1610 1609 52
1615 1609 22
1616 1609 22
1617 1609 22
1626 1609 34
1627 1609 34
1628 1609 34
1636 1609 22
1637 1609 22
1638 1609 22
1639 1609 34
1640 1609 34
1641 1609 34
1650 1609 22
1651 1609 22
1652 1609 22
1665 1609 22
1666 1609 22
1667 1609 22
1682 1609 34
1683 1609 34
1684 1609 34
1689 1609 22
1690 1609 22
1691 1609 22
1692 1609 34
1693 1609 34
1694 1609 34
1695 1609 52
1696 1609 52
1697 1609 52
1706 1609 34
1707 1609 34
1708 1609 34
1716 1609 34
1717 1609 34
1718 1609 34
1719 1609 22
1720 1609 22
1721 1609 22
1727 1609 22
1728 1609 22
1729 1609 22
1615 1610 22
1616 1610 22
1617 1610 22
1626 1610 34
1627 1610 34
1628 1610 34
1636 1610 22
1637 1610 22
1638 1610 22
1639 1610 34
1640 1610 34
1641 1610 34
1650 1610 22
1651 1610 22
1652 1610 22
1665 1610 22
1666 1610 22
1667 1610 22
1682 1610 34
1683 1610 34
1684 1610 34
1689 1610 22
1690 1610 22
1691 1610 22
1692 1610 34
1693 1610 34
1694 1610 34
1695 1610 52
1696 1610 52
1697 1610 52
1706 1610 34
1707 1610 34
1708 1610 34
1716 1610 34
1717 1610 34
1718 1610 34
1719 1610 22
1720 1610 22
1721 1610 22
1727 1610 22
1728 1610 22
1729 1610 22
1613 1612 25
1617 1612 25
1619 1612 16
1620 1612 16
1628 1612 16
1677 1612 13
1678 1612 13
1681 1612 13
1687 1612 16
1688 1612 16
1691 1612 16
1700 1612 10
1701 1612 10
1708 1612 10
1615 1613 10
1617 1613 29
1619 1613 16
1620 1613 16
1628 1613 18
1677 1613 15
1678 1613 15
1681 1613 17
1687 1613 16
1688 1613 16
1691 1613 20
1700 1613 10
1701 1613 10
1708 1613 12
1616 1615 36
1617 1615 38
1626 1615 22
1627 1615 22
1628 1615 23
1668 1615 24
1669 1615 24
1670 1615 28
1671 1615 28
1675 1615 28
1676 1615 28
1680 1615 24
1681 1615 26
1682 1615 36
1683 1615 36
1684 1615 36
1689 1615 36
1690 1615 36
1691 1615 38
1695 1615 22
1696 1615 22
1697 1615 22
1706 1615 22
1707 1615 22
1708 1615 23
1617 1616 36
1626 1616 22
1627 1616 22
1628 1616 22
1668 1616 24
1669 1616 24
1670 1616 24
1671 1616 24
1675 1616 24
1676 1616 24
1680 1616 24
1681 1616 24
1682 1616 36
1683 1616 36
1684 1616 36
1689 1616 36
1690 1616 36
1691 1616 36
1695 1616 22
1696 1616 22
1697 1616 22
1706 1616 22
1707 1616 22
1708 1616 22
1619 1617 16
1620 1617 16
1626 1617 22
1627 1617 22
1628 1617 36
1668 1617 24
1669 1617 24
1670 1617 28
1671 1617 28
1675 1617 28
1676 1617 28
1677 1617 21
1678 1617 21
1680 1617 24
1681 1617 35
1682 1617 36
1683 1617 36
1684 1617 36
1687 1617 16
1688 1617 16
1689 1617 36
1690 1617 36
1691 1617 48
1695 1617 22
1696 1617 22
1697 1617 22
1700 1617 10
1701 1617 10
1706 1617 22
1707 1617 22
1708 1617 30
1620 1619 25
1623 1619 16
1624 1619 16
1628 1619 25
1652 1619 16
1687 1619 10
1688 1619 10
1691 1619 10
1700 1619 16
1701 1619 16
1704 1619 10
1705 1619 10
1708 1619 16
1729 1619 10
1623 1620 16
1624 1620 16
1628 1620 25
1652 1620 16
1687 1620 10
1688 1620 10
1691 1620 10
1700 1620 16
1701 1620 16
1704 1620 10
1705 1620 10
1708 1620 16
1729 1620 10
1624 1623 25
1628 1623 16
1644 1623 16
1645 1623 16
1646 1623 16
1652 1623 25
1700 1623 10
1701 1623 10
1704 1623 16
1705 1623 16
1708 1623 10
1710 1623 13
1724 1623 13
1725 1623 13
1729 1623 16
1628 1624 18
1634 1624 11
1639 1624 10
1642 1624 11
1644 1624 20
1645 1624 18
1646 1624 20
1650 1624 10
1652 1624 29
1700 1624 10
1701 1624 10
1704 1624 16
1705 1624 16
1708 1624 12
1710 1624 17
1724 1624 15
1725 1624 15
1729 1624 20
1627 1626 34
1628 1626 34
1639 1626 22
1640 1626 22
1641 1626 22
1650 1626 22
1651 1626 22
1652 1626 22
1682 1626 22
1683 1626 22
1684 1626 22
1689 1626 22
1690 1626 22
1691 1626 22
1695 1626 34
1696 1626 34
1697 1626 34
1706 1626 34
1707 1626 34
1708 1626 34
1716 1626 22
1717 1626 22
1718 1626 22
1727 1626 22
1728 1626 22
1729 1626 22
1628 1627 34
1639 1627 22
1640 1627 22
1641 1627 22
1650 1627 22
1651 1627 22
1652 1627 22
1682 1627 22
1683 1627 22
1684 1627 22
1689 1627 22
1690 1627 22
1691 1627 22
1695 1627 34
1696 1627 34
1697 1627 34
1706 1627 34
1707 1627 34
1708 1627 34
1716 1627 22
1717 1627 22
1718 1627 22
1727 1627 22
1728 1627 22
1729 1627 22
1639 1628 23
1640 1628 22
1641 1628 22
1650 1628 23
1651 1628 22
1652 1628 36
1682 1628 22
1683 1628 22
1684 1628 22
1687 1628 10
1688 1628 10
1689 1628 22
1690 1628 22
1691 1628 30
1695 1628 34
1696 1628 34
1697 1628 34
1700 1628 16
1701 1628 16
1704 1628 10
1705 1628 10
1706 1628 34
1707 1628 34
1708 1628 46
1716 1628 22
1717 1628 22
1718 1628 22
1727 1628 22
1728 1628 22
1729 1628 30
1631 1629 26
1632 1629 29
1633 1629 29
1634 1629 32
1635 1629 24
1636 1629 42
1637 1629 37
1638 1629 37
1639 1629 27
1640 1629 24
1641 1629 24
1648 1629 55
1649 1629 37
1653 1629 32
1655 1629 11
1656 1629 12
1657 1629 17
1711 1629 31
1712 1629 32
1714 1629 15
1715 1629 16
1716 1629 24
1717 1629 24
1718 1629 24
1719 1629 37
1720 1629 37
1721 1629 37
1730 1629 55
1731 1629 55
1733 1629 26
1734 1629 26
1735 1629 24
1736 1629 24
1737 1629 37
1738 1629 37
1632 1631 26
1633 1631 26
1634 1631 14
1648 1631 26
1653 1631 14
1655 1631 11
1656 1631 12
1657 1631 15
1711 1631 13
1712 1631 14
1714 1631 15
1715 1631 16
1730 1631 26
1731 1631 26
1733 1631 26
1734 1631 26
1633 1632 33
1634 1632 16
1636 1632 22
1639 1632 11
1648 1632 33
1653 1632 16
1655 1632 11
1656 1632 12
1657 1632 17
1711 1632 15
1712 1632 16
1714 1632 15
1715 1632 16
1730 1632 29
1731 1632 29
1733 1632 26
1734 1632 26
1634 1633 16
1636 1633 22
1639 1633 11
1648 1633 33
1653 1633 16
1655 1633 11
1656 1633 12
1657 1633 17
1711 1633 15
1712 1633 16
1714 1633 15
1715 1633 16
1730 1633 29
1731 1633 29
1733 1633 26
1734 1633 26
1635 1634 37
1636 1634 27
1637 1634 24
1638 1634 24
1639 1634 43
1640 1634 37
1641 1634 37
1642 1634 35
1643 1634 34
1644 1634 30
1645 1634 20
1646 1634 22
1647 1634 17
1648 1634 32
1649 1634 24
1650 1634 28
1651 1634 24
1652 1634 30
1653 1634 52
1654 1634 10
1657 1634 27
1709 1634 24
1710 1634 30
1711 1634 51
1712 1634 52
1714 1634 23
1715 1634 24
1716 1634 37
1717 1634 37
1718 1634 37
1719 1634 24
1720 1634 24
1721 1634 24
1722 1634 34
1723 1634 34
1724 1634 20
1725 1634 20
1726 1634 15
1727 1634 24
1728 1634 24
1729 1634 29
1730 1634 32
1731 1634 32
1733 1634 14
1734 1634 14
1735 1634 37
1736 1634 37
1737 1634 24
1738 1634 24
1636 1635 24
1637 1635 24
1638 1635 24
1639 1635 37
1640 1635 37
1641 1635 37
1642 1635 24
1643 1635 24
1644 1635 24
1648 1635 24
1649 1635 24
1650 1635 24
1651 1635 24
1652 1635 24
1653 1635 37
1709 1635 24
1710 1635 24
1711 1635 37
1712 1635 37
1716 1635 37
1717 1635 37
1718 1635 37
1719 1635 24
1720 1635 24
1721 1635 24
1722 1635 24
1723 1635 24
1727 1635 24
1728 1635 24
1729 1635 24
1730 1635 24
1731 1635 24
1735 1635 37
1736 1635 37
1737 1635 24
1738 1635 24
1637 1636 55
1638 1636 55
1639 1636 39
1640 1636 36
1641 1636 36
1648 1636 46
1649 1636 37
1653 1636 27
1657 1636 11
1692 1636 33
1693 1636 34
1694 1636 34
1695 1636 22
1696 1636 22
1697 1636 22
1711 1636 27
1712 1636 27
1716 1636 36
1717 1636 36
1718 1636 36
1719 1636 55
1720 1636 55
1721 1636 55
1730 1636 42
1731 1636 42
1735 1636 24
1736 1636 24
1737 1636 37
1738 1636 37
1638 1637 55
1639 1637 36
1640 1637 36
1641 1637 36
1648 1637 37
1649 1637 37
1653 1637 24
1692 1637 33
1693 1637 34
1694 1637 34
1695 1637 22
1696 1637 22
1697 1637 22
1711 1637 24
1712 1637 24
1716 1637 36
1717 1637 36
1718 1637 36
1719 1637 55
1720 1637 55
1721 1637 55
1730 1637 37
1731 1637 37
1735 1637 24
1736 1637 24
1737 1637 37
1738 1637 37
1639 1638 36
1640 1638 36
1641 1638 36
1648 1638 37
1649 1638 37
1653 1638 24
1692 1638 33
1693 1638 34
1694 1638 34
1695 1638 22
1696 1638 22
1697 1638 22
1711 1638 24
1712 1638 24
1716 1638 36
1717 1638 36
1718 1638 36
1719 1638 55
1720 1638 55
1721 1638 55
1730 1638 37
1731 1638 37
1735 1638 24
1736 1638 24
1737 1638 37
1738 1638 37
1640 1639 55
1641 1639 55
1642 1639 28
1643 1639 27
1644 1639 26
1646 1639 16
1647 1639 11
1648 1639 27
1649 1639 24
1650 1639 40
1651 1639 36
1652 1639 38
1653 1639 42
1657 1639 18
1692 1639 22
1693 1639 22
1694 1639 22
1695 1639 34
1696 1639 34
1697 1639 34
1706 1639 22
1707 1639 22
1708 1639 23
1709 1639 24
1710 1639 26
1711 1639 42
1712 1639 42
1716 1639 55
1717 1639 55
1718 1639 55
1719 1639 36
1720 1639 36
1721 1639 36
1722 1639 27
1723 1639 27
1727 1639 36
1728 1639 36
1729 1639 38
1730 1639 27
1731 1639 27
1735 1639 37
1736 1639 37
1737 1639 24
1738 1639 24
1641 1640 55
1642 1640 24
1643 1640 24
1644 1640 24
1648 1640 24
1649 1640 24
1650 1640 36
1651 1640 36
1652 1640 36
1653 1640 37
1692 1640 22
1693 1640 22
1694 1640 22
1695 1640 34
1696 1640 34
1697 1640 34
1706 1640 22
1707 1640 22
1708 1640 22
1709 1640 24
1710 1640 24
1711 1640 37
1712 1640 37
1716 1640 55
1717 1640 55
1718 1640 55
1719 1640 36
1720 1640 36
1721 1640 36
1722 1640 24
1723 1640 24
1727 1640 36
1728 1640 36
1729 1640 36
1730 1640 24
1731 1640 24
1735 1640 37
1736 1640 37
1737 1640 24
1738 1640 24
1642 1641 24
1643 1641 24
1644 1641 24
1648 1641 24
1649 1641 24
1650 1641 36
1651 1641 36
1652 1641 36
1653 1641 37
1692 1641 22
1693 1641 22
1694 1641 22
1695 1641 34
1696 1641 34
1697 1641 34
1706 1641 22
1707 1641 22
1708 1641 22
1709 1641 24
1710 1641 24
1711 1641 37
1712 1641 37
1716 1641 55
1717 1641 55
1718 1641 55
1719 1641 36
1720 1641 36
1721 1641 36
1722 1641 24
1723 1641 24
1727 1641 36
1728 1641 36
1729 1641 36
1730 1641 24
1731 1641 24
1735 1641 37
1736 1641 37
1737 1641 24
1738 1641 24
1643 1642 36
1644 1642 30
1645 1642 22
1646 1642 24
1647 1642 19
1650 1642 28
1651 1642 24
1652 1642 30
1653 1642 34
1654 1642 10
1655 1642 12
1656 1642 13
1657 1642 18
1709 1642 24
1710 1642 30
1711 1642 33
1712 1642 34
1714 1642 16
1715 1642 17
1716 1642 24
1717 1642 24
1718 1642 24
1722 1642 36
1723 1642 36
1724 1642 22
1725 1642 22
1726 1642 17
1727 1642 24
1728 1642 24
1729 1642 29
1735 1642 24
1736 1642 24
1644 1643 29
1645 1643 21
1646 1643 23
1647 1643 19
1650 1643 27
1651 1643 24
1652 1643 29
1653 1643 34
1654 1643 10
1655 1643 12
1656 1643 13
1657 1643 18
1709 1643 24
1710 1643 29
1711 1643 33
1712 1643 34
1714 1643 16
1715 1643 17
1716 1643 24
1717 1643 24
1718 1643 24
1722 1643 36
1723 1643 36
1724 1643 21
1725 1643 21
1726 1643 17
1727 1643 24
1728 1643 24
1729 1643 28
1735 1643 24
1736 1643 24
1645 1644 27
1646 1644 29
1650 1644 26
1651 1644 24
1652 1644 39
1653 1644 29
1654 1644 10
1704 1644 10
1705 1644 10
1709 1644 24
1710 1644 39
1711 1644 29
1712 1644 29
1716 1644 24
1717 1644 24
1718 1644 24
1722 1644 29
1723 1644 29
1724 1644 24
1725 1644 24
1727 1644 24
1728 1644 24
1729 1644 32
1735 1644 24
1736 1644 24
1646 1645 34
1647 1645 17
1652 1645 24
1653 1645 19
1655 1645 12
1656 1645 13
1657 1645 16
1704 1645 10
1705 1645 10
1710 1645 24
1711 1645 18
1712 1645 19
1714 1645 16
1715 1645 17
1722 1645 21
1723 1645 21
1724 1645 31
1725 1645 31
1726 1645 17
1729 1645 18
1647 1646 19
1650 1646 16
1652 1646 26
1653 1646 21
1655 1646 12
1656 1646 13
1657 1646 18
1704 1646 10
1705 1646 10
1710 1646 26
1711 1646 20
1712 1646 21
1714 1646 16
1715 1646 17
1722 1646 23
1723 1646 23
1724 1646 31
1725 1646 31
1726 1646 17
1729 1646 20
1650 1647 11
1653 1647 17
1655 1647 12
1656 1647 13
1657 1647 18
1711 1647 16
1712 1647 17
1714 1647 16
1715 1647 17
1722 1647 19
1723 1647 19
1724 1647 17
1725 1647 17
1726 1647 17
1649 1648 37
1653 1648 32
1655 1648 11
1656 1648 12
1657 1648 17
1711 1648 31
1712 1648 32
1714 1648 15
1715 1648 16
1716 1648 24
1717 1648 24
1718 1648 24
1719 1648 37
1720 1648 37
1721 1648 37
1730 1648 55
1731 1648 55
1733 1648 26
1734 1648 26
1735 1648 24
1736 1648 24
1737 1648 37
1738 1648 37
1653 1649 24
1711 1649 24
1712 1649 24
1716 1649 24
1717 1649 24
1718 1649 24
1719 1649 37
1720 1649 37
1721 1649 37
1730 1649 37
1731 1649 37
1735 1649 24
1736 1649 24
1737 1649 37
1738 1649 37
1651 1650 36
1652 1650 38
1653 1650 27
1657 1650 11
1695 1650 22
1696 1650 22
1697 1650 22
1706 1650 22
1707 1650 22
1708 1650 23
1709 1650 24
1710 1650 26
1711 1650 27
1712 1650 27
1716 1650 36
1717 1650 36
1718 1650 36
1722 1650 27
1723 1650 27
1727 1650 36
1728 1650 36
1729 1650 38
1735 1650 24
1736 1650 24
1652 1651 36
1653 1651 24
1695 1651 22
1696 1651 22
1697 1651 22
1706 1651 22
1707 1651 22
1708 1651 22
1709 1651 24
1710 1651 24
1711 1651 24
1712 1651 24
1716 1651 36
1717 1651 36
1718 1651 36
1722 1651 24
1723 1651 24
1727 1651 36
1728 1651 36
1729 1651 36
1735 1651 24
1736 1651 24
1653 1652 29
1654 1652 10
1695 1652 22
1696 1652 22
1697 1652 22
1700 1652 10
1701 1652 10
1704 1652 16
1705 1652 16
1706 1652 22
1707 1652 22
1708 1652 30
1709 1652 24
1710 1652 36
1711 1652 29
1712 1652 29
1716 1652 36
1717 1652 36
1718 1652 36
1722 1652 29
1723 1652 29
1724 1652 21
1725 1652 21
1727 1652 36
1728 1652 36
1729 1652 48
1735 1652 24
1736 1652 24
1654 1653 10
1657 1653 27
1709 1653 24
1710 1653 29
1711 1653 51
1712 1653 52
1714 1653 23
1715 1653 24
1716 1653 37
1717 1653 37
1718 1653 37
1719 1653 24
1720 1653 24
1721 1653 24
1722 1653 34
1723 1653 34
1724 1653 19
1725 1653 19
1726 1653 15
1727 1653 24
1728 1653 24
1729 1653 28
1730 1653 32
1731 1653 32
1733 1653 14
1734 1653 14
1735 1653 37
1736 1653 37
1737 1653 24
1738 1653 24
1710 1654 10
1711 1654 10
1712 1654 10
1722 1654 10
1723 1654 10
1656 1655 21
1714 1655 21
1715 1655 21
1722 1655 12
1723 1655 12
1724 1655 12
1725 1655 12
1726 1655 12
1730 1655 11
1731 1655 11
1733 1655 11
1734 1655 11
1657 1656 21
1714 1656 22
1715 1656 22
1722 1656 13
1723 1656 13
1724 1656 13
1725 1656 13
1726 1656 13
1730 1656 12
1731 1656 12
1733 1656 12
1734 1656 12
1711 1657 26
1712 1657 27
1714 1657 24
1715 1657 25
1722 1657 18
1723 1657 18
1724 1657 16
1725 1657 16
1726 1657 16
1730 1657 17
1731 1657 17
1733 1657 15
1734 1657 15
1659 1658 58
1660 1658 58
1661 1658 58
1665 1658 58
1666 1658 58
1667 1658 58
1668 1658 38
1669 1658 38
1670 1658 38
1671 1658 38
1682 1658 38
1683 1658 38
1684 1658 38
1802 1658 40
1803 1658 40
1807 1658 26
1808 1658 26
1809 1658 26
1817 1658 40
1818 1658 40
1819 1658 40
1820 1658 26
1821 1658 26
1825 1658 26
1826 1658 26
1827 1658 40
1828 1658 40
1660 1659 58
1661 1659 58
1665 1659 58
1666 1659 58
1667 1659 58
1668 1659 38
1669 1659 38
1670 1659 38
1671 1659 38
1682 1659 38
1683 1659 38
1684 1659 38
1802 1659 40
1803 1659 40
1807 1659 26
1808 1659 26
1809 1659 26
1817 1659 40
1818 1659 40
1819 1659 40
1820 1659 26
1821 1659 26
1825 1659 26
1826 1659 26
1827 1659 40
1828 1659 40
1661 1660 88
1662 1660 10
1663 1660 39
1664 1660 39
1665 1660 58
1666 1660 58
1667 1660 58
1668 1660 38
1669 1660 38
1670 1660 56
1671 1660 56
1672 1660 10
1673 1660 24
1674 1660 24
1682 1660 38
1683 1660 38
1684 1660 38
1802 1660 40
1803 1660 40
1807 1660 26
1808 1660 26
1809 1660 26
1817 1660 40
1818 1660 40
1819 1660 40
1820 1660 37
1821 1660 36
1822 1660 10
1823 1660 13
1824 1660 12
1825 1660 26
1826 1660 26
1827 1660 60
1828 1660 57
1829 1660 10
1830 1660 24
1831 1660 21
1662 1661 10
1663 1661 39
1664 1661 39
1665 1661 58
1666 1661 58
1667 1661 58
1668 1661 38
1669 1661 38
1670 1661 56
1671 1661 56
1672 1661 10
1673 1661 24
1674 1661 24
1682 1661 38
1683 1661 38
1684 1661 38
1802 1661 40
1803 1661 40
1807 1661 26
1808 1661 26
1809 1661 26
1817 1661 40
1818 1661 40
1819 1661 40
1820 1661 37
1821 1661 36
1822 1661 10
1823 1661 13
1824 1661 12
1825 1661 26
1826 1661 26
1827 1661 60
1828 1661 57
1829 1661 10
1830 1661 24
1831 1661 21
1670 1662 10
1671 1662 10
1672 1662 10
1820 1662 10
1821 1662 10
1822 1662 10
1827 1662 10
1828 1662 10
1829 1662 10
1664 1663 39
1670 1663 24
1671 1663 24
1673 1663 24
1674 1663 24
1820 1663 13
1821 1663 12
1823 1663 13
1824 1663 12
1827 1663 24
1828 1663 21
1830 1663 24
1831 1663 21
1670 1664 24
1671 1664 24
1673 1664 24
1674 1664 24
1820 1664 13
1821 1664 12
1823 1664 13
1824 1664 12
1827 1664 24
1828 1664 21
1830 1664 24
1831 1664 21
1666 1665 85
1667 1665 85
1668 1665 38
1669 1665 38
1670 1665 38
1671 1665 38
1682 1665 56
1683 1665 56
1684 1665 56
1692 1665 49
1693 1665 51
1694 1665 52
1695 1665 34
1696 1665 34
1697 1665 34
1793 1665 21
1794 1665 21
1795 1665 22
1796 1665 34
1797 1665 34
1798 1665 34
1802 1665 40
1803 1665 40
1807 1665 38
1808 1665 38
1809 1665 38
1817 1665 58
1818 1665 58
1819 1665 57
1820 1665 26
1821 1665 26
1825 1665 26
1826 1665 26
1827 1665 40
1828 1665 40
1667 1666 85
1668 1666 38
1669 1666 38
1670 1666 38
1671 1666 38
1682 1666 56
1683 1666 56
1684 1666 56
1692 1666 49
1693 1666 51
1694 1666 52
1695 1666 34
1696 1666 34
1697 1666 34
1793 1666 21
1794 1666 21
1795 1666 22
1796 1666 34
1797 1666 34
1798 1666 34
1802 1666 40
1803 1666 40
1807 1666 38
1808 1666 38
1809 1666 38
1817 1666 58
1818 1666 58
1819 1666 57
1820 1666 26
1821 1666 26
1825 1666 26
1826 1666 26
1827 1666 40
1828 1666 40
1668 1667 38
1669 1667 38
1670 1667 38
1671 1667 38
1682 1667 56
1683 1667 56
1684 1667 56
1692 1667 49
1693 1667 51
1694 1667 52
1695 1667 34
1696 1667 34
1697 1667 34
1793 1667 21
1794 1667 21
1795 1667 22
1796 1667 34
1797 1667 34
1798 1667 34
1802 1667 40
1803 1667 40
1807 1667 38
1808 1667 38
1809 1667 38
1817 1667 58
1818 1667 58
1819 1667 57
1820 1667 26
1821 1667 26
1825 1667 26
1826 1667 26
1827 1667 40
1828 1667 40
1669 1668 58
1670 1668 58
1671 1668 58
1675 1668 38
1676 1668 38
1680 1668 38
1681 1668 38
1682 1668 58
1683 1668 58
1684 1668 58
1689 1668 38
1690 1668 38
1691 1668 38
1802 1668 26
1803 1668 26
1804 1668 26
1805 1668 26
1806 1668 26
1807 1668 40
1808 1668 40
1809 1668 40
1810 1668 26
1811 1668 26
1815 1668 26
1816 1668 26
1817 1668 26
1818 1668 26
1819 1668 26
1820 1668 40
1821 1668 40
1825 1668 40
1826 1668 40
1827 1668 26
1828 1668 26
1670 1669 58
1671 1669 58
1675 1669 38
1676 1669 38
1680 1669 38
1681 1669 38
1682 1669 58
1683 1669 58
1684 1669 58
1689 1669 38
1690 1669 38
1691 1669 38
1802 1669 26
1803 1669 26
1804 1669 26
1805 1669 26
1806 1669 26
1807 1669 40
1808 1669 40
1809 1669 40
1810 1669 26
1811 1669 26
1815 1669 26
1816 1669 26
1817 1669 26
1818 1669 26
1819 1669 26
1820 1669 40
1821 1669 40
1825 1669 40
1826 1669 40
1827 1669 26
1828 1669 26
1671 1670 85
1672 1670 16
1673 1670 39
1674 1670 39
1675 1670 56
1676 1670 56
1677 1670 32
1678 1670 32
1679 1670 26
1680 1670 38
1681 1670 46
1682 1670 58
1683 1670 58
1684 1670 58
1689 1670 38
1690 1670 38
1691 1670 44
1802 1670 26
1803 1670 26
1804 1670 26
1805 1670 26
1806 1670 30
1807 1670 40
1808 1670 40
1809 1670 40
1810 1670 38
1811 1670 36
1812 1670 19
1813 1670 20
1814 1670 13
1815 1670 26
1816 1670 32
1817 1670 26
1818 1670 26
1819 1670 26
1820 1670 57
1821 1670 55
1822 1670 16
1823 1670 23
1824 1670 21
1825 1670 40
1826 1670 40
1827 1670 38
1828 1670 36
1829 1670 10
1830 1670 14
1831 1670 12
1672 1671 16
1673 1671 39
1674 1671 39
1675 1671 56
1676 1671 56
1677 1671 32
1678 1671 32
1679 1671 26
1680 1671 38
1681 1671 46
1682 1671 58
1683 1671 58
1684 1671 58
1689 1671 38
1690 1671 38
1691 1671 44
1802 1671 26
1803 1671 26
1804 1671 26
1805 1671 26
1806 1671 30
1807 1671 40
1808 1671 40
1809 1671 40
1810 1671 38
1811 1671 36
1812 1671 19
1813 1671 20
1814 1671 13
1815 1671 26
1816 1671 32
1817 1671 26
1818 1671 26
1819 1671 26
1820 1671 57
1821 1671 55
1822 1671 16
1823 1671 23
1824 1671 21
1825 1671 40
1826 1671 40
1827 1671 38
1828 1671 36
1829 1671 10
1830 1671 14
1831 1671 12
1675 1672 10
1676 1672 10
1681 1672 10
1810 1672 10
1811 1672 10
1816 1672 10
1820 1672 16
1821 1672 16
1822 1672 16
1827 1672 10
1828 1672 10
1829 1672 10
1674 1673 39
1675 1673 26
1676 1673 26
1677 1673 26
1678 1673 26
1679 1673 26
1810 1673 16
1811 1673 14
1812 1673 15
1813 1673 16
1814 1673 13
1820 1673 23
1821 1673 21
1823 1673 23
1824 1673 21
1827 1673 14
1828 1673 12
1830 1673 14
1831 1673 12
1675 1674 26
1676 1674 26
1677 1674 26
1678 1674 26
1679 1674 26
1810 1674 16
1811 1674 14
1812 1674 15
1813 1674 16
1814 1674 13
1820 1674 23
1821 1674 21
1823 1674 23
1824 1674 21
1827 1674 14
1828 1674 12
1830 1674 14
1831 1674 12
1676 1675 56
1677 1675 32
1678 1675 32
1679 1675 26
1680 1675 38
1681 1675 46
1682 1675 38
1683 1675 38
1684 1675 38
1689 1675 38
1690 1675 38
1691 1675 44
1804 1675 26
1805 1675 26
1806 1675 30
1807 1675 26
1808 1675 26
1809 1675 26
1810 1675 38
1811 1675 36
1812 1675 19
1813 1675 20
1814 1675 13
1815 1675 26
1816 1675 32
1820 1675 37
1821 1675 36
1822 1675 10
1823 1675 15
1824 1675 14
1825 1675 26
1826 1675 26
1677 1676 32
1678 1676 32
1679 1676 26
1680 1676 38
1681 1676 46
1682 1676 38
1683 1676 38
1684 1676 38
1689 1676 38
1690 1676 38
1691 1676 44
1804 1676 26
1805 1676 26
1806 1676 30
1807 1676 26
1808 1676 26
1809 1676 26
1810 1676 38
1811 1676 36
1812 1676 19
1813 1676 20
1814 1676 13
1815 1676 26
1816 1676 32
1820 1676 37
1821 1676 36
1822 1676 10
1823 1676 15
1824 1676 14
1825 1676 26
1826 1676 26
1678 1677 47
1679 1677 26
1681 1677 37
1687 1677 16
1688 1677 16
1691 1677 28
1761 1677 10
1762 1677 10
1806 1677 18
1810 1677 20
1811 1677 18
1812 1677 29
1813 1677 30
1814 1677 13
1816 1677 24
1820 1677 19
1821 1677 18
1823 1677 15
1824 1677 14
1679 1678 26
1681 1678 37
1687 1678 16
1688 1678 16
1691 1678 28
1761 1678 10
1762 1678 10
1806 1678 18
1810 1678 20
1811 1678 18
1812 1678 29
1813 1678 30
1814 1678 13
1816 1678 24
1820 1678 19
1821 1678 18
1823 1678 15
1824 1678 14
1810 1679 16
1811 1679 14
1812 1679 15
1813 1679 16
1814 1679 13
1820 1679 15
1821 1679 14
1823 1679 15
1824 1679 14
1681 1680 38
1682 1680 38
1683 1680 38
1684 1680 38
1689 1680 38
1690 1680 38
1691 1680 38
1804 1680 26
1805 1680 26
1806 1680 26
1807 1680 26
1808 1680 26
1809 1680 26
1810 1680 26
1811 1680 26
1815 1680 26
1816 1680 26
1820 1680 26
1821 1680 26
1825 1680 26
1826 1680 26
1682 1681 38
1683 1681 38
1684 1681 38
1687 1681 16
1688 1681 16
1689 1681 38
1690 1681 38
1691 1681 50
1761 1681 10
1762 1681 10
1804 1681 26
1805 1681 26
1806 1681 34
1807 1681 26
1808 1681 26
1809 1681 26
1810 1681 32
1811 1681 32
1812 1681 24
1813 1681 24
1815 1681 26
1816 1681 42
1820 1681 32
1821 1681 32
1822 1681 10
1825 1681 26
1826 1681 26
1683 1682 85
1684 1682 85
1689 1682 56
1690 1682 56
1691 1682 56
1692 1682 32
1693 1682 33
1694 1682 34
1695 1682 52
1696 1682 52
1697 1682 52
1706 1682 34
1707 1682 34
1708 1682 34
1793 1682 33
1794 1682 33
1795 1682 34
1796 1682 22
1797 1682 22
1798 1682 22
1799 1682 22
1800 1682 22
1801 1682 22
1802 1682 26
1803 1682 26
1804 1682 38
1805 1682 38
1806 1682 38
1807 1682 58
1808 1682 58
1809 1682 58
1810 1682 26
1811 1682 26
1815 1682 26
1816 1682 26
1817 1682 38
1818 1682 38
1819 1682 37
1820 1682 40
1821 1682 40
1825 1682 40
1826 1682 40
1827 1682 26
1828 1682 26
1684 1683 85
1689 1683 56
1690 1683 56
1691 1683 56
1692 1683 32
1693 1683 33
1694 1683 34
1695 1683 52
1696 1683 52
1697 1683 52
1706 1683 34
1707 1683 34
1708 1683 34
1793 1683 33
1794 1683 33
1795 1683 34
1796 1683 22
1797 1683 22
1798 1683 22
1799 1683 22
1800 1683 22
1801 1683 22
1802 1683 26
1803 1683 26
1804 1683 38
1805 1683 38
1806 1683 38
1807 1683 58
1808 1683 58
1809 1683 58
1810 1683 26
1811 1683 26
1815 1683 26
1816 1683 26
1817 1683 38
1818 1683 38
1819 1683 37
1820 1683 40
1821 1683 40
1825 1683 40
1826 1683 40
1827 1683 26
1828 1683 26
1689 1684 56
1690 1684 56
1691 1684 56
1692 1684 32
1693 1684 33
1694 1684 34
1695 1684 52
1696 1684 52
1697 1684 52
1706 1684 34
1707 1684 34
1708 1684 34
1793 1684 33
1794 1684 33
1795 1684 34
1796 1684 22
1797 1684 22
1798 1684 22
1799 1684 22
1800 1684 22
1801 1684 22
1802 1684 26
1803 1684 26
1804 1684 38
1805 1684 38
1806 1684 38
1807 1684 58
1808 1684 58
1809 1684 58
1810 1684 26
1811 1684 26
1815 1684 26
1816 1684 26
1817 1684 38
1818 1684 38
1819 1684 37
1820 1684 40
1821 1684 40
1825 1684 40
1826 1684 40
1827 1684 26
1828 1684 26
1688 1687 25
1691 1687 25
1700 1687 16
1701 1687 16
1708 1687 16
1753 1687 10
1754 1687 10
1761 1687 16
1762 1687 16
1801 1687 10
1806 1687 16
1812 1687 10
1813 1687 10
1816 1687 10
1691 1688 25
1700 1688 16
1701 1688 16
1708 1688 16
1753 1688 10
1754 1688 10
1761 1688 16
1762 1688 16
1801 1688 10
1806 1688 16
1812 1688 10
1813 1688 10
1816 1688 10
1690 1689 56
1691 1689 56
1695 1689 34
1696 1689 34
1697 1689 34
1706 1689 34
1707 1689 34
1708 1689 34
1793 1689 22
1794 1689 22
1795 1689 22
1799 1689 22
1800 1689 22
1801 1689 22
1804 1689 38
1805 1689 38
1806 1689 38
1807 1689 38
1808 1689 38
1809 1689 38
1810 1689 26
1811 1689 26
1815 1689 26
1816 1689 26
1820 1689 26
1821 1689 26
1825 1689 26
1826 1689 26
1691 1690 56
1695 1690 34
1696 1690 34
1697 1690 34
1706 1690 34
1707 1690 34
1708 1690 34
1793 1690 22
1794 1690 22
1795 1690 22
1799 1690 22
1800 1690 22
1801 1690 22
1804 1690 38
1805 1690 38
1806 1690 38
1807 1690 38
1808 1690 38
1809 1690 38
1810 1690 26
1811 1690 26
1815 1690 26
1816 1690 26
1820 1690 26
1821 1690 26
1825 1690 26
1826 1690 26
1695 1691 34
1696 1691 34
1697 1691 34
1700 1691 16
1701 1691 16
1706 1691 34
1707 1691 34
1708 1691 46
1753 1691 10
1754 1691 10
1761 1691 16
1762 1691 16
1793 1691 22
1794 1691 22
1795 1691 22
1799 1691 22
1800 1691 22
1801 1691 30
1804 1691 38
1805 1691 38
1806 1691 50
1807 1691 38
1808 1691 38
1809 1691 38
1810 1691 30
1811 1691 30
1812 1691 18
1813 1691 18
1815 1691 26
1816 1691 34
1820 1691 30
1821 1691 30
1825 1691 26
1826 1691 26
1693 1692 75
1694 1692 76
1695 1692 50
1696 1692 50
1697 1692 50
1716 1692 33
1717 1692 33
1718 1692 33
1719 1692 50
1720 1692 50
1721 1692 50
1784 1692 21
1785 1692 21
1786 1692 21
1790 1692 33
1791 1692 33
1792 1692 33
1793 1692 31
1795 1692 32
1796 1692 50
1797 1692 50
1798 1692 50
1807 1692 20
1808 1692 20
1809 1692 20
1817 1692 32
1818 1692 32
1694 1693 78
1695 1693 51
1696 1693 51
1697 1693 51
1716 1693 33
1717 1693 33
1718 1693 33
1719 1693 51
1720 1693 51
1721 1693 51
1784 1693 21
1785 1693 21
1786 1693 21
1790 1693 33
1791 1693 33
1792 1693 33
1794 1693 32
1795 1693 33
1796 1693 51
1797 1693 51
1798 1693 51
1807 1693 21
1808 1693 21
1809 1693 21
1817 1693 33
1818 1693 33
1819 1693 32
1695 1694 52
1696 1694 52
1697 1694 52
1716 1694 34
1717 1694 34
1718 1694 34
1719 1694 52
1720 1694 52
1721 1694 52
1784 1694 22
1785 1694 22
1786 1694 22
1790 1694 34
1791 1694 34
1792 1694 34
1793 1694 33
1794 1694 33
1795 1694 34
1796 1694 52
1797 1694 52
1798 1694 52
1807 1694 22
1808 1694 22
1809 1694 22
1817 1694 34
1818 1694 34
1819 1694 33
1696 1695 79
1697 1695 79
1706 1695 52
1707 1695 52
1708 1695 52
1716 1695 52
1717 1695 52
1718 1695 52
1719 1695 34
1720 1695 34
1721 1695 34
1727 1695 34
1728 1695 34
1729 1695 34
1784 1695 34
1785 1695 34
1786 1695 34
1787 1695 22
1788 1695 22
1789 1695 22
1790 1695 22
1791 1695 22
1792 1695 22
1793 1695 51
1794 1695 51
1795 1695 52
1796 1695 34
1797 1695 34
1798 1695 34
1799 1695 34
1800 1695 34
1801 1695 34
1804 1695 22
1805 1695 22
1806 1695 22
1807 1695 34
1808 1695 34
1809 1695 34
1817 1695 22
1818 1695 22
1819 1695 21
1697 1696 79
1706 1696 52
1707 1696 52
1708 1696 52
1716 1696 52
1717 1696 52
1718 1696 52
1719 1696 34
1720 1696 34
1721 1696 34
1727 1696 34
1728 1696 34
1729 1696 34
1784 1696 34
1785 1696 34
1786 1696 34
1787 1696 22
1788 1696 22
1789 1696 22
1790 1696 22
1791 1696 22
1792 1696 22
1793 1696 51
1794 1696 51
1795 1696 52
1796 1696 34
1797 1696 34
1798 1696 34
1799 1696 34
1800 1696 34
1801 1696 34
1804 1696 22
1805 1696 22
1806 1696 22
1807 1696 34
1808 1696 34
1809 1696 34
1817 1696 22
1818 1696 22
1819 1696 21
1706 1697 52
1707 1697 52
1708 1697 52
1716 1697 52
1717 1697 52
1718 1697 52
1719 1697 34
1720 1697 34
1721 1697 34
1727 1697 34
1728 1697 34
1729 1697 34
1784 1697 34
1785 1697 34
1786 1697 34
1787 1697 22
1788 1697 22
1789 1697 22
1790 1697 22
1791 1697 22
1792 1697 22
1793 1697 51
1794 1697 51
1795 1697 52
1796 1697 34
1797 1697 34
1798 1697 34
1799 1697 34
1800 1697 34
1801 1697 34
1804 1697 22
1805 1697 22
1806 1697 22
1807 1697 34
1808 1697 34
1809 1697 34
1817 1697 22
1818 1697 22
1819 1697 21
1701 1700 25
1704 1700 16
1705 1700 16
1708 1700 25
1729 1700 16
1749 1700 10
1750 1700 10
1753 1700 16
1754 1700 16
1761 1700 10
1762 1700 10
1789 1700 10
1801 1700 16
1806 1700 10
1704 1701 16
1705 1701 16
1708 1701 25
1729 1701 16
1749 1701 10
1750 1701 10
1753 1701 16
1754 1701 16
1761 1701 10
1762 1701 10
1789 1701 10
1801 1701 16
1806 1701 10
1705 1704 25
1708 1704 16
1710 1704 16
1724 1704 16
1725 1704 16
1729 1704 25
1749 1704 16
1750 1704 16
1753 1704 10
1754 1704 10
1765 1704 10
1766 1704 10
1783 1704 10
1789 1704 16
1801 1704 10
1708 1705 16
1710 1705 16
1724 1705 16
1725 1705 16
1729 1705 25
1749 1705 16
1750 1705 16
1753 1705 10
1754 1705 10
1765 1705 10
1766 1705 10
1783 1705 10
1789 1705 16
1801 1705 10
1707 1706 52
1708 1706 52
1716 1706 34
1717 1706 34
1718 1706 34
1727 1706 34
1728 1706 34
1729 1706 34
1784 1706 22
1785 1706 22
1786 1706 22
1787 1706 22
1788 1706 22
1789 1706 22
1793 1706 34
1794 1706 34
1795 1706 34
1799 1706 34
1800 1706 34
1801 1706 34
1804 1706 22
1805 1706 22
1806 1706 22
1807 1706 22
1808 1706 22
1809 1706 22
1708 1707 52
1716 1707 34
1717 1707 34
1718 1707 34
1727 1707 34
1728 1707 34
1729 1707 34
1784 1707 22
1785 1707 22
1786 1707 22
1787 1707 22
1788 1707 22
1789 1707 22
1793 1707 34
1794 1707 34
1795 1707 34
1799 1707 34
1800 1707 34
1801 1707 34
1804 1707 22
1805 1707 22
1806 1707 22
1807 1707 22
1808 1707 22
1809 1707 22
1716 1708 34
1717 1708 34
1718 1708 34
1727 1708 34
1728 1708 34
1729 1708 46
1749 1708 10
1750 1708 10
1753 1708 16
1754 1708 16
1761 1708 10
1762 1708 10
1784 1708 22
1785 1708 22
1786 1708 22
1787 1708 22
1788 1708 22
1789 1708 30
1793 1708 34
1794 1708 34
1795 1708 34
1799 1708 34
1800 1708 34
1801 1708 46
1804 1708 22
1805 1708 22
1806 1708 30
1807 1708 22
1808 1708 22
1809 1708 22
1710 1709 38
1711 1709 38
1712 1709 38
1716 1709 38
1717 1709 38
1718 1709 38
1722 1709 38
1723 1709 38
1727 1709 38
1728 1709 38
1729 1709 38
1735 1709 38
1736 1709 38
1763 1709 26
1764 1709 26
1768 1709 26
1769 1709 26
1772 1709 26
1773 1709 26
1782 1709 26
1783 1709 26
1784 1709 26
1785 1709 26
1786 1709 26
1787 1709 26
1788 1709 26
1789 1709 26
1711 1710 45
1712 1710 45
1716 1710 38
1717 1710 38
1718 1710 38
1722 1710 45
1723 1710 45
1724 1710 37
1725 1710 37
1727 1710 38
1728 1710 38
1729 1710 50
1735 1710 38
1736 1710 38
1749 1710 10
1750 1710 10
1763 1710 30
1764 1710 30
1765 1710 24
1766 1710 24
1768 1710 26
1769 1710 26
1772 1710 30
1773 1710 30
1782 1710 26
1783 1710 40
1784 1710 26
1785 1710 26
1786 1710 26
1787 1710 26
1788 1710 26
1789 1710 34
1712 1711 79
1715 1711 36
1716 1711 58
1717 1711 58
1718 1711 58
1719 1711 38
1720 1711 38
1721 1711 38
1722 1711 52
1723 1711 52
1724 1711 29
1725 1711 29
1726 1711 23
1727 1711 38
1728 1711 38
1729 1711 44
1730 1711 49
1731 1711 49
1733 1711 21
1734 1711 21
1735 1711 58
1736 1711 58
1737 1711 38
1738 1711 38
1763 1711 35
1764 1711 35
1765 1711 19
1766 1711 19
1767 1711 15
1768 1711 40
1769 1711 40
1770 1711 26
1771 1711 26
1772 1711 52
1773 1711 53
1775 1711 22
1776 1711 23
1777 1711 33
1778 1711 33
1780 1711 13
1781 1711 13
1782 1711 26
1783 1711 30
1784 1711 40
1785 1711 40
1786 1711 40
1787 1711 26
1788 1711 26
1789 1711 30
1790 1711 26
1791 1711 26
1792 1711 26
1714 1712 36
1715 1712 37
1716 1712 58
1717 1712 58
1718 1712 58
1719 1712 38
1720 1712 38
1721 1712 38
1722 1712 53
1723 1712 53
1724 1712 30
1725 1712 30
1726 1712 24
1727 1712 38
1728 1712 38
1729 1712 44
1730 1712 50
1731 1712 50
1733 1712 22
1734 1712 22
1735 1712 58
1736 1712 58
1737 1712 38
1738 1712 38
1763 1712 36
1764 1712 36
1765 1712 20
1766 1712 20
1767 1712 16
1768 1712 40
1769 1712 40
1770 1712 26
1771 1712 26
1772 1712 53
1773 1712 54
1775 1712 23
1776 1712 24
1777 1712 34
1778 1712 34
1780 1712 14
1781 1712 14
1782 1712 26
1783 1712 30
1784 1712 40
1785 1712 40
1786 1712 40
1787 1712 26
1788 1712 26
1789 1712 30
1790 1712 26
1791 1712 26
1792 1712 26
1715 1714 38
1722 1714 25
1723 1714 25
1724 1714 25
1725 1714 25
1726 1714 25
1730 1714 23
1731 1714 23
1733 1714 23
1734 1714 23
1763 1714 15
1764 1714 15
1765 1714 15
1766 1714 15
1767 1714 15
1772 1714 22
1773 1714 23
1775 1714 22
1776 1714 23
1777 1714 13
1778 1714 13
1780 1714 13
1781 1714 13
1722 1715 26
1723 1715 26
1724 1715 26
1725 1715 26
1726 1715 26
1730 1715 24
1731 1715 24
1733 1715 24
1734 1715 24
1763 1715 16
1764 1715 16
1765 1715 16
1766 1715 16
1767 1715 16
1772 1715 23
1773 1715 24
1775 1715 23
1776 1715 24
1777 1715 14
1778 1715 14
1780 1715 14
1781 1715 14
1717 1716 85
1718 1716 85
1719 1716 56
1720 1716 56
1721 1716 56
1722 1716 38
1723 1716 38
1727 1716 56
1728 1716 56
1729 1716 56
1730 1716 38
1731 1716 38
1735 1716 58
1736 1716 58
1737 1716 38
1738 1716 38
1763 1716 26
1764 1716 26
1768 1716 40
1769 1716 40
1770 1716 26
1771 1716 26
1772 1716 40
1773 1716 40
1777 1716 26
1778 1716 26
1782 1716 26
1783 1716 26
1784 1716 58
1785 1716 58
1786 1716 58
1787 1716 38
1788 1716 38
1789 1716 38
1790 1716 38
1791 1716 38
1792 1716 38
1793 1716 33
1794 1716 33
1795 1716 34
1796 1716 22
1797 1716 22
1798 1716 22
1799 1716 22
1800 1716 22
1801 1716 22
1718 1717 85
1719 1717 56
1720 1717 56
1721 1717 56
1722 1717 38
1723 1717 38
1727 1717 56
1728 1717 56
1729 1717 56
1730 1717 38
1731 1717 38
1735 1717 58
1736 1717 58
1737 1717 38
1738 1717 38
1763 1717 26
1764 1717 26
1768 1717 40
1769 1717 40
1770 1717 26
1771 1717 26
1772 1717 40
1773 1717 40
1777 1717 26
1778 1717 26
1782 1717 26
1783 1717 26
1784 1717 58
1785 1717 58
1786 1717 58
1787 1717 38
1788 1717 38
1789 1717 38
1790 1717 38
1791 1717 38
1792 1717 38
1793 1717 33
1794 1717 33
1795 1717 34
1796 1717 22
1797 1717 22
1798 1717 22
1799 1717 22
1800 1717 22
1801 1717 22
1719 1718 56
1720 1718 56
1721 1718 56
1722 1718 38
1723 1718 38
1727 1718 56
1728 1718 56
1729 1718 56
1730 1718 38
1731 1718 38
1735 1718 58
1736 1718 58
1737 1718 38
1738 1718 38
1763 1718 26
1764 1718 26
1768 1718 40
1769 1718 40
1770 1718 26
1771 1718 26
1772 1718 40
1773 1718 40
1777 1718 26
1778 1718 26
1782 1718 26
1783 1718 26
1784 1718 58
1785 1718 58
1786 1718 58
1787 1718 38
1788 1718 38
1789 1718 38
1790 1718 38
1791 1718 38
1792 1718 38
1793 1718 33
1794 1718 33
1795 1718 34
1796 1718 22
1797 1718 22
1798 1718 22
1799 1718 22
1800 1718 22
1801 1718 22
1720 1719 85
1721 1719 85
1730 1719 58
1731 1719 58
1735 1719 38
1736 1719 38
1737 1719 58
1738 1719 58
1768 1719 26
1769 1719 26
1770 1719 40
1771 1719 40
1772 1719 26
1773 1719 26
1777 1719 40
1778 1719 40
1784 1719 38
1785 1719 38
1786 1719 38
1790 1719 58
1791 1719 58
1792 1719 58
1793 1719 21
1794 1719 21
1795 1719 22
1796 1719 34
1797 1719 34
1798 1719 34
1721 1720 85
1730 1720 58
1731 1720 58
1735 1720 38
1736 1720 38
1737 1720 58
1738 1720 58
1768 1720 26
1769 1720 26
1770 1720 40
1771 1720 40
1772 1720 26
1773 1720 26
1777 1720 40
1778 1720 40
1784 1720 38
1785 1720 38
1786 1720 38
1790 1720 58
1791 1720 58
1792 1720 58
1793 1720 21
1794 1720 21
1795 1720 22
1796 1720 34
1797 1720 34
1798 1720 34
1730 1721 58
1731 1721 58
1735 1721 38
1736 1721 38
1737 1721 58
1738 1721 58
1768 1721 26
1769 1721 26
1770 1721 40
1771 1721 40
1772 1721 26
1773 1721 26
1777 1721 40
1778 1721 40
1784 1721 38
1785 1721 38
1786 1721 38
1790 1721 58
1791 1721 58
1792 1721 58
1793 1721 21
1794 1721 21
1795 1721 22
1796 1721 34
1797 1721 34
1798 1721 34
1723 1722 55
1724 1722 32
1725 1722 32
1726 1722 26
1727 1722 38
1728 1722 38
1729 1722 44
1735 1722 38
1736 1722 38
1763 1722 36
1764 1722 36
1765 1722 20
1766 1722 20
1767 1722 16
1768 1722 26
1769 1722 26
1772 1722 35
1773 1722 36
1775 1722 15
1776 1722 16
1782 1722 26
1783 1722 30
1784 1722 26
1785 1722 26
1786 1722 26
1787 1722 26
1788 1722 26
1789 1722 30
1724 1723 32
1725 1723 32
1726 1723 26
1727 1723 38
1728 1723 38
1729 1723 44
1735 1723 38
1736 1723 38
1763 1723 36
1764 1723 36
1765 1723 20
1766 1723 20
1767 1723 16
1768 1723 26
1769 1723 26
1772 1723 35
1773 1723 36
1775 1723 15
1776 1723 16
1782 1723 26
1783 1723 30
1784 1723 26
1785 1723 26
1786 1723 26
1787 1723 26
1788 1723 26
1789 1723 30
1725 1724 47
1726 1724 26
1729 1724 28
1749 1724 10
1750 1724 10
1763 1724 20
1764 1724 20
1765 1724 30
1766 1724 30
1767 1724 16
1772 1724 19
1773 1724 20
1775 1724 15
1776 1724 16
1783 1724 24
1789 1724 18
1726 1725 26
1729 1725 28
1749 1725 10
1750 1725 10
1763 1725 20
1764 1725 20
1765 1725 30
1766 1725 30
1767 1725 16
1772 1725 19
1773 1725 20
1775 1725 15
1776 1725 16
1783 1725 24
1789 1725 18
1763 1726 16
1764 1726 16
1765 1726 16
1766 1726 16
1767 1726 16
1772 1726 15
1773 1726 16
1775 1726 15
1776 1726 16
1728 1727 56
1729 1727 56
1735 1727 38
1736 1727 38
1763 1727 26
1764 1727 26
1768 1727 26
1769 1727 26
1772 1727 26
1773 1727 26
1782 1727 26
1783 1727 26
1784 1727 38
1785 1727 38
1786 1727 38
1787 1727 38
1788 1727 38
1789 1727 38
1793 1727 22
1794 1727 22
1795 1727 22
1799 1727 22
1800 1727 22
1801 1727 22
1729 1728 56
1735 1728 38
1736 1728 38
1763 1728 26
1764 1728 26
1768 1728 26
1769 1728 26
1772 1728 26
1773 1728 26
1782 1728 26
1783 1728 26
1784 1728 38
1785 1728 38
1786 1728 38
1787 1728 38
1788 1728 38
1789 1728 38
1793 1728 22
1794 1728 22
1795 1728 22
1799 1728 22
1800 1728 22
1801 1728 22
1735 1729 38
1736 1729 38
1749 1729 16
1750 1729 16
1753 1729 10
1754 1729 10
1763 1729 30
1764 1729 30
1765 1729 18
1766 1729 18
1768 1729 26
1769 1729 26
1772 1729 30
1773 1729 30
1782 1729 26
1783 1729 34
1784 1729 38
1785 1729 38
1786 1729 38
1787 1729 38
1788 1729 38
1789 1729 50
1793 1729 22
1794 1729 22
1795 1729 22
1799 1729 22
1800 1729 22
1801 1729 30
1731 1730 86
1732 1730 10
1733 1730 39
1734 1730 39
1735 1730 38
1736 1730 38
1737 1730 58
1738 1730 58
1768 1730 26
1769 1730 26
1770 1730 40
1771 1730 40
1772 1730 33
1773 1730 34
1775 1730 13
1776 1730 14
1777 1730 58
1778 1730 58
1779 1730 10
1780 1730 24
1781 1730 24
1784 1730 26
1785 1730 26
1786 1730 26
1790 1730 40
1791 1730 40
1792 1730 40
1732 1731 10
1733 1731 39
1734 1731 39
1735 1731 38
1736 1731 38
1737 1731 58
1738 1731 58
1768 1731 26
1769 1731 26
1770 1731 40
1771 1731 40
1772 1731 33
1773 1731 34
1775 1731 13
1776 1731 14
1777 1731 58
1778 1731 58
1779 1731 10
1780 1731 24
1781 1731 24
1784 1731 26
1785 1731 26
1786 1731 26
1790 1731 40
1791 1731 40
1792 1731 40
1777 1732 10
1778 1732 10
1779 1732 10
1734 1733 39
1772 1733 13
1773 1733 14
1775 1733 13
1776 1733 14
1777 1733 24
1778 1733 24
1780 1733 24
1781 1733 24
1772 1734 13
1773 1734 14
1775 1734 13
1776 1734 14
1777 1734 24
1778 1734 24
1780 1734 24
1781 1734 24
1736 1735 58
1737 1735 38
1738 1735 38
1763 1735 26
1764 1735 26
1768 1735 40
1769 1735 40
1770 1735 26
1771 1735 26
1772 1735 40
1773 1735 40
1777 1735 26
1778 1735 26
1782 1735 26
1783 1735 26
1784 1735 40
1785 1735 40
1786 1735 40
1787 1735 26
1788 1735 26
1789 1735 26
1790 1735 26
1791 1735 26
1792 1735 26
1737 1736 38
1738 1736 38
1763 1736 26
1764 1736 26
1768 1736 40
1769 1736 40
1770 1736 26
1771 1736 26
1772 1736 40
1773 1736 40
1777 1736 26
1778 1736 26
1782 1736 26
1783 1736 26
1784 1736 40
1785 1736 40
1786 1736 40
1787 1736 26
1788 1736 26
1789 1736 26
1790 1736 26
1791 1736 26
1792 1736 26
1738 1737 58
1768 1737 26
1769 1737 26
1770 1737 40
1771 1737 40
1772 1737 26
1773 1737 26
1777 1737 40
1778 1737 40
1784 1737 26
1785 1737 26
1786 1737 26
1790 1737 40
1791 1737 40
1792 1737 40
1768 1738 26
1769 1738 26
1770 1738 40
1771 1738 40
1772 1738 26
1773 1738 26
1777 1738 40
1778 1738 40
1784 1738 26
1785 1738 26
1786 1738 26
1790 1738 40
1791 1738 40
1792 1738 40
1742 1741 22
1757 1741 10
1758 1741 10
1761 1741 10
1762 1741 10
1806 1741 11
1812 1741 10
1813 1741 10
1816 1741 10
1908 1741 11
1917 1741 10
1918 1741 10
1929 1741 10
1939 1741 16
1940 1741 16
1944 1741 16
1945 1741 16
1949 1741 10
1950 1741 10
1951 1741 10
1960 1741 16
1962 1741 16
1981 1741 22
1757 1742 10
1758 1742 10
1761 1742 10
1762 1742 10
1806 1742 11
1812 1742 10
1813 1742 10
1816 1742 10
1908 1742 11
1917 1742 10
1918 1742 10
1929 1742 10
1939 1742 16
1940 1742 16
1944 1742 16
1945 1742 16
1949 1742 10
1950 1742 10
1951 1742 10
1960 1742 16
1962 1742 16
1981 1742 22
1746 1745 22
1749 1745 10
1750 1745 10
1757 1745 10
1758 1745 10
1765 1745 10
1766 1745 10
1783 1745 10
1789 1745 11
1840 1745 16
1857 1745 16
1858 1745 16
1862 1745 10
1863 1745 10
1864 1745 10
1875 1745 22
1891 1745 16
1892 1745 16
1896 1745 16
1908 1745 11
1917 1745 10
1918 1745 10
1929 1745 10
1749 1746 10
1750 1746 10
1757 1746 10
1758 1746 10
1765 1746 10
1766 1746 10
1783 1746 10
1789 1746 11
1840 1746 16
1857 1746 16
1858 1746 16
1862 1746 10
1863 1746 10
1864 1746 10
1875 1746 22
1891 1746 16
1892 1746 16
1896 1746 16
1908 1746 11
1917 1746 10
1918 1746 10
1929 1746 10
1750 1749 22
1753 1749 10
1754 1749 10
1765 1749 16
1766 1749 16
1783 1749 16
1789 1749 22
1801 1749 11
1840 1749 10
1857 1749 10
1858 1749 10
1875 1749 11
1753 1750 10
1754 1750 10
1765 1750 16
1766 1750 16
1783 1750 16
1789 1750 22
1801 1750 11
1840 1750 10
1857 1750 10
1858 1750 10
1875 1750 11
1754 1753 16
1761 1753 10
1762 1753 10
1789 1753 10
1801 1753 16
1806 1753 10
1761 1754 10
1762 1754 10
1789 1754 10
1801 1754 16
1806 1754 10
1758 1757 16
1875 1757 10
1891 1757 10
1892 1757 10
1896 1757 10
1908 1757 16
1917 1757 16
1918 1757 16
1929 1757 16
1939 1757 10
1940 1757 10
1960 1757 10
1981 1757 10
1875 1758 10
1891 1758 10
1892 1758 10
1896 1758 10
1908 1758 16
1917 1758 16
1918 1758 16
1929 1758 16
1939 1758 10
1940 1758 10
1960 1758 10
1981 1758 10
1762 1761 22
1801 1761 11
1806 1761 22
1812 1761 16
1813 1761 16
1816 1761 16
1944 1761 10
1945 1761 10
1962 1761 10
1981 1761 11
1801 1762 11
1806 1762 22
1812 1762 16
1813 1762 16
1816 1762 16
1944 1762 10
1945 1762 10
1962 1762 10
1981 1762 11
1764 1763 55
1765 1763 31
1766 1763 31
1767 1763 25
1768 1763 40
1769 1763 40
1772 1763 53
1773 1763 54
1775 1763 24
1776 1763 24
1782 1763 40
1783 1763 46
1784 1763 40
1785 1763 40
1786 1763 40
1787 1763 40
1788 1763 40
1789 1763 46
1839 1763 26
1840 1763 30
1841 1763 26
1842 1763 26
1848 1763 36
1849 1763 36
1851 1763 15
1852 1763 16
1855 1763 36
1856 1763 36
1857 1763 20
1858 1763 20
1859 1763 16
1873 1763 26
1874 1763 26
1875 1763 30
1879 1763 26
1880 1763 26
1881 1763 24
1765 1764 31
1766 1764 31
1767 1764 25
1768 1764 40
1769 1764 40
1772 1764 53
1773 1764 54
1775 1764 24
1776 1764 24
1782 1764 40
1783 1764 46
1784 1764 40
1785 1764 40
1786 1764 40
1787 1764 40
1788 1764 40
1789 1764 46
1839 1764 26
1840 1764 30
1841 1764 26
1842 1764 26
1848 1764 36
1849 1764 36
1851 1764 15
1852 1764 16
1855 1764 36
1856 1764 36
1857 1764 20
1858 1764 20
1859 1764 16
1873 1764 26
1874 1764 26
1875 1764 30
1879 1764 26
1880 1764 26
1881 1764 24
1766 1765 46
1767 1765 25
1772 1765 30
1773 1765 31
1775 1765 24
1776 1765 24
1783 1765 37
1789 1765 28
1840 1765 24
1848 1765 20
1849 1765 20
1851 1765 15
1852 1765 16
1855 1765 20
1856 1765 20
1857 1765 30
1858 1765 30
1859 1765 16
1875 1765 18
1767 1766 25
1772 1766 30
1773 1766 31
1775 1766 24
1776 1766 24
1783 1766 37
1789 1766 28
1840 1766 24
1848 1766 20
1849 1766 20
1851 1766 15
1852 1766 16
1855 1766 20
1856 1766 20
1857 1766 30
1858 1766 30
1859 1766 16
1875 1766 18
1772 1767 24
1773 1767 25
1775 1767 24
1776 1767 24
1848 1767 16
1849 1767 16
1851 1767 15
1852 1767 16
1855 1767 16
1856 1767 16
1857 1767 16
1858 1767 16
1859 1767 16
1769 1768 61
1770 1768 40
1771 1768 40
1772 1768 60
1773 1768 60
1777 1768 40
1778 1768 40
1782 1768 40
1783 1768 40
1784 1768 61
1785 1768 61
1786 1768 61
1787 1768 40
1788 1768 40
1789 1768 40
1790 1768 40
1791 1768 40
1792 1768 40
1834 1768 26
1835 1768 26
1839 1768 26
1840 1768 26
1841 1768 40
1842 1768 40
1848 1768 40
1849 1768 40
1853 1768 26
1854 1768 26
1855 1768 26
1856 1768 26
1873 1768 26
1874 1768 26
1875 1768 26
1876 1768 26
1877 1768 26
1878 1768 26
1879 1768 40
1880 1768 40
1881 1768 38
1770 1769 40
1771 1769 40
1772 1769 60
1773 1769 60
1777 1769 40
1778 1769 40
1782 1769 40
1783 1769 40
1784 1769 61
1785 1769 61
1786 1769 61
1787 1769 40
1788 1769 40
1789 1769 40
1790 1769 40
1791 1769 40
1792 1769 40
1834 1769 26
1835 1769 26
1839 1769 26
1840 1769 26
1841 1769 40
1842 1769 40
1848 1769 40
1849 1769 40
1853 1769 26
1854 1769 26
1855 1769 26
1856 1769 26
1873 1769 26
1874 1769 26
1875 1769 26
1876 1769 26
1877 1769 26
1878 1769 26
1879 1769 40
1880 1769 40
1881 1769 38
1771 1770 61
1772 1770 39
1773 1770 39
1777 1770 61
1778 1770 61
1784 1770 40
1785 1770 40
1786 1770 40
1790 1770 61
1791 1770 61
1792 1770 61
1834 1770 40
1835 1770 40
1841 1770 26
1842 1770 26
1848 1770 26
1849 1770 26
1853 1770 40
1854 1770 40
1876 1770 40
1877 1770 40
1878 1770 40
1879 1770 26
1880 1770 26
1881 1770 24
1772 1771 39
1773 1771 39
1777 1771 61
1778 1771 61
1784 1771 40
1785 1771 40
1786 1771 40
1790 1771 61
1791 1771 61
1792 1771 61
1834 1771 40
1835 1771 40
1841 1771 26
1842 1771 26
1848 1771 26
1849 1771 26
1853 1771 40
1854 1771 40
1876 1771 40
1877 1771 40
1878 1771 40
1879 1771 26
1880 1771 26
1881 1771 24
1773 1772 80
1776 1772 35
1777 1772 50
1778 1772 50
1780 1772 21
1781 1772 21
1782 1772 39
1783 1772 45
1784 1772 60
1785 1772 60
1786 1772 60
1787 1772 39
1788 1772 39
1789 1772 45
1790 1772 39
1791 1772 39
1792 1772 39
1834 1772 32
1835 1772 32
1837 1772 12
1838 1772 12
1839 1772 25
1840 1772 29
1841 1772 39
1842 1772 39
1848 1772 52
1849 1772 52
1851 1772 22
1852 1772 23
1853 1772 25
1854 1772 25
1855 1772 34
1856 1772 34
1857 1772 19
1858 1772 19
1859 1772 15
1873 1772 25
1874 1772 25
1875 1772 29
1876 1772 25
1877 1772 25
1878 1772 25
1879 1772 39
1880 1772 39
1775 1773 36
1776 1773 36
1777 1773 51
1778 1773 51
1780 1773 22
1781 1773 22
1782 1773 39
1783 1773 45
1784 1773 60
1785 1773 60
1786 1773 60
1787 1773 39
1788 1773 39
1789 1773 45
1790 1773 39
1791 1773 39
1792 1773 39
1834 1773 33
1835 1773 33
1837 1773 13
1838 1773 13
1839 1773 25
1840 1773 29
1841 1773 39
1842 1773 39
1848 1773 53
1849 1773 53
1851 1773 23
1852 1773 24
1853 1773 25
1854 1773 25
1855 1773 35
1856 1773 35
1857 1773 20
1858 1773 20
1859 1773 16
1873 1773 25
1874 1773 25
1875 1773 29
1876 1773 25
1877 1773 25
1878 1773 25
1879 1773 39
1880 1773 39
1776 1775 35
1777 1775 21
1778 1775 21
1780 1775 21
1781 1775 21
1834 1775 13
1835 1775 13
1837 1775 12
1838 1775 12
1848 1775 23
1849 1775 23
1851 1775 22
1852 1775 23
1855 1775 15
1856 1775 15
1857 1775 15
1858 1775 15
1859 1775 15
1777 1776 21
1778 1776 21
1780 1776 21
1781 1776 21
1834 1776 13
1835 1776 13
1837 1776 12
1838 1776 12
1848 1776 23
1849 1776 23
1852 1776 23
1855 1776 15
1856 1776 15
1857 1776 15
1858 1776 15
1859 1776 15
1778 1777 88
1779 1777 16
1780 1777 37
1781 1777 37
1784 1777 40
1785 1777 40
1786 1777 40
1790 1777 61
1791 1777 61
1792 1777 61
1834 1777 58
1835 1777 58
1836 1777 10
1837 1777 23
1838 1777 23
1841 1777 26
1842 1777 26
1848 1777 34
1849 1777 34
1851 1777 13
1852 1777 14
1853 1777 40
1854 1777 40
1876 1777 40
1877 1777 40
1878 1777 40
1879 1777 26
1880 1777 26
1881 1777 24
1779 1778 16
1780 1778 37
1781 1778 37
1784 1778 40
1785 1778 40
1786 1778 40
1790 1778 61
1791 1778 61
1792 1778 61
1834 1778 58
1835 1778 58
1836 1778 10
1837 1778 23
1838 1778 23
1841 1778 26
1842 1778 26
1848 1778 34
1849 1778 34
1851 1778 13
1852 1778 14
1853 1778 40
1854 1778 40
1876 1778 40
1877 1778 40
1878 1778 40
1879 1778 26
1880 1778 26
1881 1778 24
1834 1779 10
1835 1779 10
1836 1779 10
1781 1780 37
1834 1780 24
1835 1780 24
1837 1780 23
1838 1780 23
1848 1780 14
1849 1780 14
1851 1780 13
1852 1780 14
1834 1781 24
1835 1781 24
1837 1781 23
1838 1781 23
1848 1781 14
1849 1781 14
1851 1781 13
1852 1781 14
1783 1782 40
1784 1782 40
1785 1782 40
1786 1782 40
1787 1782 40
1788 1782 40
1789 1782 40
1839 1782 26
1840 1782 26
1841 1782 26
1842 1782 26
1848 1782 26
1849 1782 26
1855 1782 26
1856 1782 26
1873 1782 26
1874 1782 26
1875 1782 26
1879 1782 26
1880 1782 26
1881 1782 24
1784 1783 40
1785 1783 40
1786 1783 40
1787 1783 40
1788 1783 40
1789 1783 52
1839 1783 26
1840 1783 40
1841 1783 26
1842 1783 26
1848 1783 30
1849 1783 30
1855 1783 30
1856 1783 30
1857 1783 24
1858 1783 24
1873 1783 26
1874 1783 26
1875 1783 34
1879 1783 26
1880 1783 26
1881 1783 24
1785 1784 88
1786 1784 88
1787 1784 58
1788 1784 58
1789 1784 58
1790 1784 58
1791 1784 58
1792 1784 58
1793 1784 50
1794 1784 51
1795 1784 52
1796 1784 34
1797 1784 34
1798 1784 34
1799 1784 34
1800 1784 34
1801 1784 34
1834 1784 26
1835 1784 26
1839 1784 26
1840 1784 26
1841 1784 40
1842 1784 40
1848 1784 40
1849 1784 40
1853 1784 26
1854 1784 26
1855 1784 26
1856 1784 26
1873 1784 38
1874 1784 38
1875 1784 38
1876 1784 38
1877 1784 38
1878 1784 38
1879 1784 58
1880 1784 58
1881 1784 56
1903 1784 34
1904 1784 34
1905 1784 34
1906 1784 22
1907 1784 21
1908 1784 22
1909 1784 22
1910 1784 22
1911 1784 22
1786 1785 88
1787 1785 58
1788 1785 58
1789 1785 58
1790 1785 58
1791 1785 58
1792 1785 58
1793 1785 50
1794 1785 51
1795 1785 52
1796 1785 34
1797 1785 34
1798 1785 34
1799 1785 34
1800 1785 34
1801 1785 34
1834 1785 26
1835 1785 26
1839 1785 26
1840 1785 26
1841 1785 40
1842 1785 40
1848 1785 40
1849 1785 40
1853 1785 26
1854 1785 26
1855 1785 26
1856 1785 26
1873 1785 38
1874 1785 38
1875 1785 38
1876 1785 38
1877 1785 38
1878 1785 38
1879 1785 58
1880 1785 58
1881 1785 56
1903 1785 34
1904 1785 34
1905 1785 34
1906 1785 22
1907 1785 21
1908 1785 22
1909 1785 22
1910 1785 22
1911 1785 22
1787 1786 58
1788 1786 58
1789 1786 58
1790 1786 58
1791 1786 58
1792 1786 58
1793 1786 50
1794 1786 51
1795 1786 52
1796 1786 34
1797 1786 34
1798 1786 34
1799 1786 34
1800 1786 34
1801 1786 34
1834 1786 26
1835 1786 26
1839 1786 26
1840 1786 26
1841 1786 40
1842 1786 40
1848 1786 40
1849 1786 40
1853 1786 26
1854 1786 26
1855 1786 26
1856 1786 26
1873 1786 38
1874 1786 38
1875 1786 38
1876 1786 38
1877 1786 38
1878 1786 38
1879 1786 58
1880 1786 58
1881 1786 56
1903 1786 34
1904 1786 34
1905 1786 34
1906 1786 22
1907 1786 21
1908 1786 22
1909 1786 22
1910 1786 22
1911 1786 22
1788 1787 58
1789 1787 58
1793 1787 33
1794 1787 34
1795 1787 34
1799 1787 34
1800 1787 34
1801 1787 34
1839 1787 26
1840 1787 26
1841 1787 26
1842 1787 26
1848 1787 26
1849 1787 26
1855 1787 26
1856 1787 26
1873 1787 38
1874 1787 38
1875 1787 38
1879 1787 38
1880 1787 38
1881 1787 36
1903 1787 22
1904 1787 22
1905 1787 22
1906 1787 22
1907 1787 21
1908 1787 22
1789 1788 58
1793 1788 33
1794 1788 34
1795 1788 34
1799 1788 34
1800 1788 34
1801 1788 34
1839 1788 26
1840 1788 26
1841 1788 26
1842 1788 26
1848 1788 26
1849 1788 26
1855 1788 26
1856 1788 26
1873 1788 38
1874 1788 38
1875 1788 38
1879 1788 38
1880 1788 38
1881 1788 36
1903 1788 22
1904 1788 22
1905 1788 22
1906 1788 22
1907 1788 21
1908 1788 22
1793 1789 33
1794 1789 34
1795 1789 34
1799 1789 34
1800 1789 34
1801 1789 42
1839 1789 26
1840 1789 34
1841 1789 26
1842 1789 26
1848 1789 30
1849 1789 30
1855 1789 30
1856 1789 30
1857 1789 18
1858 1789 18
1873 1789 38
1874 1789 38
1875 1789 46
1879 1789 38
1880 1789 38
1881 1789 36
1903 1789 22
1904 1789 22
1905 1789 22
1906 1789 22
1907 1789 21
1908 1789 24
1791 1790 88
1792 1790 88
1793 1790 33
1794 1790 33
1795 1790 34
1796 1790 52
1797 1790 52
1798 1790 51
1834 1790 40
1835 1790 40
1841 1790 26
1842 1790 26
1848 1790 26
1849 1790 26
1853 1790 40
1854 1790 40
1876 1790 58
1877 1790 58
1878 1790 58
1879 1790 38
1880 1790 38
1881 1790 36
1903 1790 22
1904 1790 22
1905 1790 22
1909 1790 34
1910 1790 33
1911 1790 34
1792 1791 88
1793 1791 33
1794 1791 33
1795 1791 34
1796 1791 52
1797 1791 52
1798 1791 51
1834 1791 40
1835 1791 40
1841 1791 26
1842 1791 26
1848 1791 26
1849 1791 26
1853 1791 40
1854 1791 40
1876 1791 58
1877 1791 58
1878 1791 58
1879 1791 38
1880 1791 38
1881 1791 36
1903 1791 22
1904 1791 22
1905 1791 22
1909 1791 34
1910 1791 33
1911 1791 34
1793 1792 33
1794 1792 33
1795 1792 34
1796 1792 52
1797 1792 52
1798 1792 51
1834 1792 40
1835 1792 40
1841 1792 26
1842 1792 26
1848 1792 26
1849 1792 26
1853 1792 40
1854 1792 40
1876 1792 58
1877 1792 58
1878 1792 58
1879 1792 38
1880 1792 38
1881 1792 36
1903 1792 22
1904 1792 22
1905 1792 22
1909 1792 34
1910 1792 33
1911 1792 34
1794 1793 76
1795 1793 77
1796 1793 51
1797 1793 51
1798 1793 51
1799 1793 51
1800 1793 51
1801 1793 51
1804 1793 33
1805 1793 33
1806 1793 33
1807 1793 50
1808 1793 50
1809 1793 50
1817 1793 33
1818 1793 33
1819 1793 32
1873 1793 21
1874 1793 21
1875 1793 21
1876 1793 22
1877 1793 22
1878 1793 22
1879 1793 33
1880 1793 33
1881 1793 33
1903 1793 51
1904 1793 51
1905 1793 51
1906 1793 33
1908 1793 33
1909 1793 34
1910 1793 34
1911 1793 34
1935 1793 22
1936 1793 22
1937 1793 22
1971 1793 33
1972 1793 33
1973 1793 33
1979 1793 21
1980 1793 21
1981 1793 21
1795 1794 78
1796 1794 51
1797 1794 51
1798 1794 51
1799 1794 52
1800 1794 52
1801 1794 52
1804 1794 34
1805 1794 34
1806 1794 34
1807 1794 51
1808 1794 51
1809 1794 51
1817 1794 33
1818 1794 33
1819 1794 33
1873 1794 22
1874 1794 22
1875 1794 22
1876 1794 22
1877 1794 22
1878 1794 22
1879 1794 34
1880 1794 34
1881 1794 34
1903 1794 52
1904 1794 52
1905 1794 52
1906 1794 34
1907 1794 33
1908 1794 34
1909 1794 34
1910 1794 34
1911 1794 34
1935 1794 22
1936 1794 22
1937 1794 22
1971 1794 34
1972 1794 34
1973 1794 34
1979 1794 22
1980 1794 22
1981 1794 22
1796 1795 52
1797 1795 52
1798 1795 52
1799 1795 52
1800 1795 52
1801 1795 52
1804 1795 34
1805 1795 34
1806 1795 34
1807 1795 52
1808 1795 52
1809 1795 52
1817 1795 34
1818 1795 34
1819 1795 33
1873 1795 22
1874 1795 22
1875 1795 22
1876 1795 22
1877 1795 22
1878 1795 22
1879 1795 34
1880 1795 34
1881 1795 34
1903 1795 52
1904 1795 52
1905 1795 52
1906 1795 34
1907 1795 33
1908 1795 34
1909 1795 34
1910 1795 34
1911 1795 34
1935 1795 22
1936 1795 22
1937 1795 22
1971 1795 34
1972 1795 34
1973 1795 34
1979 1795 22
1980 1795 22
1981 1795 22
1797 1796 79
1798 1796 78
1807 1796 34
1808 1796 34
1809 1796 34
1817 1796 52
1818 1796 52
1819 1796 51
1876 1796 34
1877 1796 34
1878 1796 34
1879 1796 22
1880 1796 22
1881 1796 22
1903 1796 34
1904 1796 34
1905 1796 34
1909 1796 52
1910 1796 51
1911 1796 52
1935 1796 34
1936 1796 34
1937 1796 34
1971 1796 22
1972 1796 22
1973 1796 22
1798 1797 78
1807 1797 34
1808 1797 34
1809 1797 34
1817 1797 52
1818 1797 52
1819 1797 51
1876 1797 34
1877 1797 34
1878 1797 34
1879 1797 22
1880 1797 22
1881 1797 22
1903 1797 34
1904 1797 34
1905 1797 34
1909 1797 52
1910 1797 51
1911 1797 52
1935 1797 34
1936 1797 34
1937 1797 34
1971 1797 22
1972 1797 22
1973 1797 22
1807 1798 34
1808 1798 34
1809 1798 34
1817 1798 51
1818 1798 51
1819 1798 50
1876 1798 33
1877 1798 33
1878 1798 33
1879 1798 22
1880 1798 22
1881 1798 22
1903 1798 34
1904 1798 34
1905 1798 34
1909 1798 51
1910 1798 50
1911 1798 51
1935 1798 33
1936 1798 33
1937 1798 33
1971 1798 22
1972 1798 22
1973 1798 22
1800 1799 52
1801 1799 52
1804 1799 34
1805 1799 34
1806 1799 34
1807 1799 34
1808 1799 34
1809 1799 34
1873 1799 22
1874 1799 22
1875 1799 22
1879 1799 22
1880 1799 22
1881 1799 22
1903 1799 34
1904 1799 34
1905 1799 34
1906 1799 34
1907 1799 33
1908 1799 34
1971 1799 22
1972 1799 22
1973 1799 22
1979 1799 22
1980 1799 22
1981 1799 22
1801 1800 52
1804 1800 34
1805 1800 34
1806 1800 34
1807 1800 34
1808 1800 34
1809 1800 34
1873 1800 22
1874 1800 22
1875 1800 22
1879 1800 22
1880 1800 22
1881 1800 22
1903 1800 34
1904 1800 34
1905 1800 34
1906 1800 34
1907 1800 33
1908 1800 34
1971 1800 22
1972 1800 22
1973 1800 22
1979 1800 22
1980 1800 22
1981 1800 22
1804 1801 34
1805 1801 34
1806 1801 42
1807 1801 34
1808 1801 34
1809 1801 34
1873 1801 22
1874 1801 22
1875 1801 24
1879 1801 22
1880 1801 22
1881 1801 22
1903 1801 34
1904 1801 34
1905 1801 34
1906 1801 34
1907 1801 33
1908 1801 34
1971 1801 22
1972 1801 22
1973 1801 22
1979 1801 22
1980 1801 22
1981 1801 24
1803 1802 61
1807 1802 40
1808 1802 40
1809 1802 40
1817 1802 61
1818 1802 61
1819 1802 61
1820 1802 40
1821 1802 40
1825 1802 40
1826 1802 40
1827 1802 61
1828 1802 61
1935 1802 40
1936 1802 40
1937 1802 40
1953 1802 40
1954 1802 40
1971 1802 26
1972 1802 26
1973 1802 26
1982 1802 26
1983 1802 26
1992 1802 40
1993 1802 40
1999 1802 26
2000 1802 26
1807 1803 40
1808 1803 40
1809 1803 40
1817 1803 61
1818 1803 61
1819 1803 61
1820 1803 40
1821 1803 40
1825 1803 40
1826 1803 40
1827 1803 61
1828 1803 61
1935 1803 40
1936 1803 40
1937 1803 40
1953 1803 40
1954 1803 40
1971 1803 26
1972 1803 26
1973 1803 26
1982 1803 26
1983 1803 26
1992 1803 40
1993 1803 40
1999 1803 26
2000 1803 26
1805 1804 58
1806 1804 58
1807 1804 58
1808 1804 58
1809 1804 58
1810 1804 40
1811 1804 40
1815 1804 40
1816 1804 40
1820 1804 40
1821 1804 40
1825 1804 40
1826 1804 40
1903 1804 22
1904 1804 22
1905 1804 22
1906 1804 22
1907 1804 21
1908 1804 22
1942 1804 26
1943 1804 26
1961 1804 26
1962 1804 26
1971 1804 38
1972 1804 38
1973 1804 38
1979 1804 38
1980 1804 38
1981 1804 38
1982 1804 26
1983 1804 26
1999 1804 26
2000 1804 26
1806 1805 58
1807 1805 58
1808 1805 58
1809 1805 58
1810 1805 40
1811 1805 40
1815 1805 40
1816 1805 40
1820 1805 40
1821 1805 40
1825 1805 40
1826 1805 40
1903 1805 22
1904 1805 22
1905 1805 22
1906 1805 22
1907 1805 21
1908 1805 22
1942 1805 26
1943 1805 26
1961 1805 26
1962 1805 26
1971 1805 38
1972 1805 38
1973 1805 38
1979 1805 38
1980 1805 38
1981 1805 38
1982 1805 26
1983 1805 26
1999 1805 26
2000 1805 26
1807 1806 58
1808 1806 58
1809 1806 58
1810 1806 46
1811 1806 46
1812 1806 28
1813 1806 28
1815 1806 40
1816 1806 52
1820 1806 46
1821 1806 46
1825 1806 40
1826 1806 40
1903 1806 22
1904 1806 22
1905 1806 22
1906 1806 22
1907 1806 21
1908 1806 24
1942 1806 30
1943 1806 30
1944 1806 18
1945 1806 18
1961 1806 26
1962 1806 34
1971 1806 38
1972 1806 38
1973 1806 38
1979 1806 38
1980 1806 38
1981 1806 46
1982 1806 26
1983 1806 26
1999 1806 30
2000 1806 30
1808 1807 88
1809 1807 88
1810 1807 40
1811 1807 40
1815 1807 40
1816 1807 40
1817 1807 58
1818 1807 58
1819 1807 57
1820 1807 61
1821 1807 61
1825 1807 61
1826 1807 61
1827 1807 40
1828 1807 40
1903 1807 34
1904 1807 34
1905 1807 34
1906 1807 22
1907 1807 21
1908 1807 22
1909 1807 22
1910 1807 22
1911 1807 22
1935 1807 38
1936 1807 38
1937 1807 38
1942 1807 26
1943 1807 26
1953 1807 26
1954 1807 26
1961 1807 26
1962 1807 26
1971 1807 58
1972 1807 58
1973 1807 58
1979 1807 38
1980 1807 38
1981 1807 38
1982 1807 40
1983 1807 40
1992 1807 26
1993 1807 26
1999 1807 40
2000 1807 40
1809 1808 88
1810 1808 40
1811 1808 40
1815 1808 40
1816 1808 40
1817 1808 58
1818 1808 58
1819 1808 57
1820 1808 61
1821 1808 61
1825 1808 61
1826 1808 61
1827 1808 40
1828 1808 40
1903 1808 34
1904 1808 34
1905 1808 34
1906 1808 22
1907 1808 21
1908 1808 22
1909 1808 22
1910 1808 22
1911 1808 22
1935 1808 38
1936 1808 38
1937 1808 38
1942 1808 26
1943 1808 26
1953 1808 26
1954 1808 26
1961 1808 26
1962 1808 26
1971 1808 58
1972 1808 58
1973 1808 58
1979 1808 38
1980 1808 38
1981 1808 38
1982 1808 40
1983 1808 40
1992 1808 26
1993 1808 26
1999 1808 40
2000 1808 40
1810 1809 40
1811 1809 40
1815 1809 40
1816 1809 40
1817 1809 58
1818 1809 58
1819 1809 57
1820 1809 61
1821 1809 61
1825 1809 61
1826 1809 61
1827 1809 40
1828 1809 40
1903 1809 34
1904 1809 34
1905 1809 34
1906 1809 22
1907 1809 21
1908 1809 22
1909 1809 22
1910 1809 22
1911 1809 22
1935 1809 38
1936 1809 38
1937 1809 38
1942 1809 26
1943 1809 26
1953 1809 26
1954 1809 26
1961 1809 26
1962 1809 26
1971 1809 58
1972 1809 58
1973 1809 58
1979 1809 38
1980 1809 38
1981 1809 38
1982 1809 40
1983 1809 40
1992 1809 26
1993 1809 26
1999 1809 40
2000 1809 40
1811 1810 55
1812 1810 30
1813 1810 31
1814 1810 22
1815 1810 40
1816 1810 48
1820 1810 56
1821 1810 55
1822 1810 10
1823 1810 24
1824 1810 23
1825 1810 40
1826 1810 40
1942 1810 36
1943 1810 36
1944 1810 20
1945 1810 20
1946 1810 16
1961 1810 26
1962 1810 30
1971 1810 26
1972 1810 26
1973 1810 26
1979 1810 26
1980 1810 26
1981 1810 30
1982 1810 26
1983 1810 26
1999 1810 35
2000 1810 36
2002 1810 15
2003 1810 16
1812 1811 29
1813 1811 29
1815 1811 40
1816 1811 48
1820 1811 54
1821 1811 55
1822 1811 10
1823 1811 22
1825 1811 40
1826 1811 40
1942 1811 34
1943 1811 34
1944 1811 18
1945 1811 18
1946 1811 14
1961 1811 26
1962 1811 30
1971 1811 26
1972 1811 26
1973 1811 26
1979 1811 26
1980 1811 26
1981 1811 30
1982 1811 26
1983 1811 26
1999 1811 33
2000 1811 34
2002 1811 13
2003 1811 14
1813 1812 45
1816 1812 37
1820 1812 29
1821 1812 29
1823 1812 23
1824 1812 22
1942 1812 19
1943 1812 19
1944 1812 29
1945 1812 29
1946 1812 15
1962 1812 24
1981 1812 18
1999 1812 18
2000 1812 19
2002 1812 14
2003 1812 15
1814 1813 22
1816 1813 37
1820 1813 30
1821 1813 29
1823 1813 24
1824 1813 23
1942 1813 20
1943 1813 20
1944 1813 30
1945 1813 30
1946 1813 16
1962 1813 24
1981 1813 18
1999 1813 19
2000 1813 20
2002 1813 15
2003 1813 16
1820 1814 21
1823 1814 21
1824 1814 22
1942 1814 13
1943 1814 13
1944 1814 13
1945 1814 13
1946 1814 13
1999 1814 12
2000 1814 13
2002 1814 12
2003 1814 13
1816 1815 40
1820 1815 40
1821 1815 40
1825 1815 40
1826 1815 40
1942 1815 26
1943 1815 26
1961 1815 26
1962 1815 26
1971 1815 26
1972 1815 26
1973 1815 26
1979 1815 26
1980 1815 26
1981 1815 26
1982 1815 26
1983 1815 26
1999 1815 26
2000 1815 26
1820 1816 48
1821 1816 48
1822 1816 10
1825 1816 40
1826 1816 40
1942 1816 30
1943 1816 30
1944 1816 24
1945 1816 24
1961 1816 26
1962 1816 40
1971 1816 26
1972 1816 26
1973 1816 26
1979 1816 26
1980 1816 26
1981 1816 34
1982 1816 26
1983 1816 26
1999 1816 30
2000 1816 30
1818 1817 88
1819 1817 87
1820 1817 40
1821 1817 40
1825 1817 40
1826 1817 40
1827 1817 61
1828 1817 61
1903 1817 22
1904 1817 22
1905 1817 22
1909 1817 34
1910 1817 33
1911 1817 34
1935 1817 58
1936 1817 58
1937 1817 58
1953 1817 40
1954 1817 40
1971 1817 38
1972 1817 38
1973 1817 38
1982 1817 26
1983 1817 26
1992 1817 40
1993 1817 40
1999 1817 26
2000 1817 26
1819 1818 87
1820 1818 40
1821 1818 40
1825 1818 40
1826 1818 40
1827 1818 61
1828 1818 61
1903 1818 22
1904 1818 22
1905 1818 22
1909 1818 34
1910 1818 33
1911 1818 34
1935 1818 58
1936 1818 58
1937 1818 58
1953 1818 40
1954 1818 40
1971 1818 38
1972 1818 38
1973 1818 38
1982 1818 26
1983 1818 26
1992 1818 40
1993 1818 40
1999 1818 26
2000 1818 26
1820 1819 40
1821 1819 40
1825 1819 40
1826 1819 40
1827 1819 61
1828 1819 61
1903 1819 22
1904 1819 22
1905 1819 22
1909 1819 34
1910 1819 33
1911 1819 34
1935 1819 58
1936 1819 58
1937 1819 58
1953 1819 40
1954 1819 40
1971 1819 38
1972 1819 38
1973 1819 38
1982 1819 26
1983 1819 26
1992 1819 40
1993 1819 40
1999 1819 26
2000 1819 26
1821 1820 82
1822 1820 16
1824 1820 33
1825 1820 61
1826 1820 61
1827 1820 55
1828 1820 53
1829 1820 10
1830 1820 21
1831 1820 19
1935 1820 26
1936 1820 26
1937 1820 26
1942 1820 35
1943 1820 35
1944 1820 19
1945 1820 19
1946 1820 15
1953 1820 33
1954 1820 33
1956 1820 13
1957 1820 13
1961 1820 26
1962 1820 30
1971 1820 40
1972 1820 40
1973 1820 40
1979 1820 26
1980 1820 26
1981 1820 30
1982 1820 40
1983 1820 40
1992 1820 26
1993 1820 26
1999 1820 52
2000 1820 53
2002 1820 22
2003 1820 23
1822 1821 16
1823 1821 33
1825 1821 61
1826 1821 61
1827 1821 54
1828 1821 54
1829 1821 10
1830 1821 20
1935 1821 26
1936 1821 26
1937 1821 26
1942 1821 34
1943 1821 34
1944 1821 18
1945 1821 18
1946 1821 14
1953 1821 32
1954 1821 32
1956 1821 12
1957 1821 12
1961 1821 26
1962 1821 30
1971 1821 40
1972 1821 40
1973 1821 40
1979 1821 26
1980 1821 26
1981 1821 30
1982 1821 40
1983 1821 40
1992 1821 26
1993 1821 26
1999 1821 50
2000 1821 51
2002 1821 20
2003 1821 21
1827 1822 10
1828 1822 10
1829 1822 10
1824 1823 33
1827 1823 21
1828 1823 19
1830 1823 21
1831 1823 19
1942 1823 15
1943 1823 15
1944 1823 15
1945 1823 15
1946 1823 15
1953 1823 13
1954 1823 13
1956 1823 13
1957 1823 13
1999 1823 22
2000 1823 23
2002 1823 22
2003 1823 23
1827 1824 20
1830 1824 20
1831 1824 20
1942 1824 14
1943 1824 14
1944 1824 14
1945 1824 14
1946 1824 14
1953 1824 12
1954 1824 12
1956 1824 12
1957 1824 12
1999 1824 20
2000 1824 21
2002 1824 20
2003 1824 21
1826 1825 61
1827 1825 40
1828 1825 40
1935 1825 26
1936 1825 26
1937 1825 26
1942 1825 26
1943 1825 26
1953 1825 26
1954 1825 26
1961 1825 26
1962 1825 26
1971 1825 40
1972 1825 40
1973 1825 40
1979 1825 26
1980 1825 26
1981 1825 26
1982 1825 40
1983 1825 40
1992 1825 26
1993 1825 26
1999 1825 40
2000 1825 40
1827 1826 40
1828 1826 40
1935 1826 26
1936 1826 26
1937 1826 26
1942 1826 26
1943 1826 26
1953 1826 26
1954 1826 26
1961 1826 26
1962 1826 26
1971 1826 40
1972 1826 40
1973 1826 40
1979 1826 26
1980 1826 26
1981 1826 26
1982 1826 40
1983 1826 40
1992 1826 26
1993 1826 26
1999 1826 40
2000 1826 40
1828 1827 86
1829 1827 10
1830 1827 37
1831 1827 34
1935 1827 40
1936 1827 40
1937 1827 40
1953 1827 56
1954 1827 56
1956 1827 24
1957 1827 24
1971 1827 26
1972 1827 26
1973 1827 26
1982 1827 26
1983 1827 26
1992 1827 40
1993 1827 40
1999 1827 33
2000 1827 34
2002 1827 13
2003 1827 14
1829 1828 10
1830 1828 34
1935 1828 40
1936 1828 40
1937 1828 40
1953 1828 53
1954 1828 53
1956 1828 21
1957 1828 21
1971 1828 26
1972 1828 26
1973 1828 26
1982 1828 26
1983 1828 26
1992 1828 40
1993 1828 40
1999 1828 31
2000 1828 32
2002 1828 11
2003 1828 12
1831 1830 34
1953 1830 24
1954 1830 24
1956 1830 24
1957 1830 24
1999 1830 13
2000 1830 14
2002 1830 13
2003 1830 14
1953 1831 21
1954 1831 21
1956 1831 21
1957 1831 21
1999 1831 11
2000 1831 12
2002 1831 11
2003 1831 12
1833 1832 37
1834 1832 32
1835 1832 32
1837 1832 13
1838 1832 13
1839 1832 24
1840 1832 30
1841 1832 37
1842 1832 37
1843 1832 52
1844 1832 10
1847 1832 27
1848 1832 52
1849 1832 52
1851 1832 24
1852 1832 24
1853 1832 24
1854 1832 24
1855 1832 34
1856 1832 34
1857 1832 20
1858 1832 20
1859 1832 15
1860 1832 35
1861 1832 34
1862 1832 30
1863 1832 20
1864 1832 22
1865 1832 17
1866 1832 32
1867 1832 24
1868 1832 32
1870 1832 14
1871 1832 16
1872 1832 16
1873 1832 24
1874 1832 24
1875 1832 29
1876 1832 24
1877 1832 24
1878 1832 24
1879 1832 37
1880 1832 37
1881 1832 37
1892 1832 11
1894 1832 28
1895 1832 24
1896 1832 30
1897 1832 27
1898 1832 24
1899 1832 24
1900 1832 43
1901 1832 37
1902 1832 37
1834 1833 24
1835 1833 24
1839 1833 24
1840 1833 24
1841 1833 37
1842 1833 37
1843 1833 37
1848 1833 37
1849 1833 37
1853 1833 24
1854 1833 24
1855 1833 24
1856 1833 24
1860 1833 24
1861 1833 24
1862 1833 24
1866 1833 24
1867 1833 24
1868 1833 24
1873 1833 24
1874 1833 24
1875 1833 24
1876 1833 24
1877 1833 24
1878 1833 24
1879 1833 37
1880 1833 37
1881 1833 37
1894 1833 24
1895 1833 24
1896 1833 24
1897 1833 24
1898 1833 24
1899 1833 24
1900 1833 37
1901 1833 37
1902 1833 37
1835 1834 87
1836 1834 16
1837 1834 38
1838 1834 38
1841 1834 38
1842 1834 38
1843 1834 32
1845 1834 14
1846 1834 14
1847 1834 18
1848 1834 52
1849 1834 52
1851 1834 23
1852 1834 24
1853 1834 58
1854 1834 58
1866 1834 57
1867 1834 37
1868 1834 57
1869 1834 10
1870 1834 26
1871 1834 29
1872 1834 29
1876 1834 58
1877 1834 58
1878 1834 58
1879 1834 38
1880 1834 38
1881 1834 36
1897 1834 42
1898 1834 37
1899 1834 37
1900 1834 27
1901 1834 24
1902 1834 24
1836 1835 16
1837 1835 38
1838 1835 38
1841 1835 38
1842 1835 38
1843 1835 32
1845 1835 14
1846 1835 14
1847 1835 18
1848 1835 52
1849 1835 52
1851 1835 23
1852 1835 24
1853 1835 58
1854 1835 58
1866 1835 57
1867 1835 37
1868 1835 57
1869 1835 10
1870 1835 26
1871 1835 29
1872 1835 29
1876 1835 58
1877 1835 58
1878 1835 58
1879 1835 38
1880 1835 38
1881 1835 36
1897 1835 42
1898 1835 37
1899 1835 37
1900 1835 27
1901 1835 24
1902 1835 24
1866 1836 10
1868 1836 10
1869 1836 10
1843 1837 13
1845 1837 13
1846 1837 13
1847 1837 15
1848 1837 23
1849 1837 23
1851 1837 22
1852 1837 23
1866 1837 25
1868 1837 25
1870 1837 25
1871 1837 25
1872 1837 25
1843 1838 13
1845 1838 13
1846 1838 13
1847 1838 15
1848 1838 23
1849 1838 23
1851 1838 22
1852 1838 23
1866 1838 25
1868 1838 25
1870 1838 25
1871 1838 25
1872 1838 25
1840 1839 38
1841 1839 38
1842 1839 38
1843 1839 24
1848 1839 38
1849 1839 38
1855 1839 38
1856 1839 38
1860 1839 24
1861 1839 24
1862 1839 24
1873 1839 38
1874 1839 38
1875 1839 38
1879 1839 38
1880 1839 38
1881 1839 36
1894 1839 24
1895 1839 24
1896 1839 24
1900 1839 24
1901 1839 24
1902 1839 24
1841 1840 38
1842 1840 38
1843 1840 29
1844 1840 10
1848 1840 45
1849 1840 45
1855 1840 45
1856 1840 45
1857 1840 37
1858 1840 37
1860 1840 30
1861 1840 29
1862 1840 39
1863 1840 24
1864 1840 26
1873 1840 38
1874 1840 38
1875 1840 50
1879 1840 38
1880 1840 38
1881 1840 36
1891 1840 13
1892 1840 17
1894 1840 26
1895 1840 24
1896 1840 36
1900 1840 26
1901 1840 24
1902 1840 24
1842 1841 58
1843 1841 37
1848 1841 58
1849 1841 58
1853 1841 38
1854 1841 38
1855 1841 38
1856 1841 38
1860 1841 24
1861 1841 24
1862 1841 24
1866 1841 24
1867 1841 24
1868 1841 24
1873 1841 38
1874 1841 38
1875 1841 38
1876 1841 38
1877 1841 38
1878 1841 38
1879 1841 58
1880 1841 58
1881 1841 56
1894 1841 24
1895 1841 24
1896 1841 24
1897 1841 24
1898 1841 24
1899 1841 24
1900 1841 37
1901 1841 37
1902 1841 37
1843 1842 37
1848 1842 58
1849 1842 58
1853 1842 38
1854 1842 38
1855 1842 38
1856 1842 38
1860 1842 24
1861 1842 24
1862 1842 24
1866 1842 24
1867 1842 24
1868 1842 24
1873 1842 38
1874 1842 38
1875 1842 38
1876 1842 38
1877 1842 38
1878 1842 38
1879 1842 58
1880 1842 58
1881 1842 56
1894 1842 24
1895 1842 24
1896 1842 24
1897 1842 24
1898 1842 24
1899 1842 24
1900 1842 37
1901 1842 37
1902 1842 37
1844 1843 10
1847 1843 27
1848 1843 52
1849 1843 52
1851 1843 24
1852 1843 24
1853 1843 24
1854 1843 24
1855 1843 34
1856 1843 34
1857 1843 19
1858 1843 19
1859 1843 15
1860 1843 34
1861 1843 34
1862 1843 29
1863 1843 19
1864 1843 21
1865 1843 17
1866 1843 32
1867 1843 24
1868 1843 32
1870 1843 14
1871 1843 16
1872 1843 16
1873 1843 24
1874 1843 24
1875 1843 28
1876 1843 24
1877 1843 24
1878 1843 24
1879 1843 37
1880 1843 37
1881 1843 37
1894 1843 27
1895 1843 24
1896 1843 29
1897 1843 27
1898 1843 24
1899 1843 24
1900 1843 42
1901 1843 37
1902 1843 37
1848 1844 10
1849 1844 10
1855 1844 10
1856 1844 10
1860 1844 10
1861 1844 10
1862 1844 10
1896 1844 10
1846 1845 24
1847 1845 24
1848 1845 24
1849 1845 24
1851 1845 24
1852 1845 24
1855 1845 15
1856 1845 15
1857 1845 15
1858 1845 15
1859 1845 15
1860 1845 15
1861 1845 15
1863 1845 15
1864 1845 15
1865 1845 15
1866 1845 14
1868 1845 14
1870 1845 14
1871 1845 14
1872 1845 14
1847 1846 24
1848 1846 24
1849 1846 24
1851 1846 24
1852 1846 24
1855 1846 15
1856 1846 15
1857 1846 15
1858 1846 15
1859 1846 15
1860 1846 15
1861 1846 15
1863 1846 15
1864 1846 15
1865 1846 15
1866 1846 14
1868 1846 14
1870 1846 14
1871 1846 14
1872 1846 14
1848 1847 29
1849 1847 29
1851 1847 26
1852 1847 26
1855 1847 19
1856 1847 19
1857 1847 17
1858 1847 17
1859 1847 17
1860 1847 19
1861 1847 19
1863 1847 17
1864 1847 19
1865 1847 19
1866 1847 18
1868 1847 18
1870 1847 16
1871 1847 18
1872 1847 18
1894 1847 11
1897 1847 11
1900 1847 18
1849 1848 82
1851 1848 38
1852 1848 39
1853 1848 38
1854 1848 38
1855 1848 55
1856 1848 55
1857 1848 32
1858 1848 32
1859 1848 26
1860 1848 36
1861 1848 36
1862 1848 29
1863 1848 21
1864 1848 23
1865 1848 19
1866 1848 34
1867 1848 24
1868 1848 34
1870 1848 16
1871 1848 18
1872 1848 18
1873 1848 38
1874 1848 38
1875 1848 44
1876 1848 38
1877 1848 38
1878 1848 38
1879 1848 58
1880 1848 58
1881 1848 56
1894 1848 27
1895 1848 24
1896 1848 29
1897 1848 27
1898 1848 24
1899 1848 24
1900 1848 42
1901 1848 37
1902 1848 37
1851 1849 38
1852 1849 39
1853 1849 38
1854 1849 38
1855 1849 55
1856 1849 55
1857 1849 32
1858 1849 32
1859 1849 26
1860 1849 36
1861 1849 36
1862 1849 29
1863 1849 21
1864 1849 23
1865 1849 19
1866 1849 34
1867 1849 24
1868 1849 34
1870 1849 16
1871 1849 18
1872 1849 18
1873 1849 38
1874 1849 38
1875 1849 44
1876 1849 38
1877 1849 38
1878 1849 38
1879 1849 58
1880 1849 58
1881 1849 56
1894 1849 27
1895 1849 24
1896 1849 29
1897 1849 27
1898 1849 24
1899 1849 24
1900 1849 42
1901 1849 37
1902 1849 37
1852 1851 38
1855 1851 25
1856 1851 25
1857 1851 25
1858 1851 25
1859 1851 25
1860 1851 17
1861 1851 17
1863 1851 17
1864 1851 17
1865 1851 17
1866 1851 16
1868 1851 16
1870 1851 16
1871 1851 16
1872 1851 16
1855 1852 26
1856 1852 26
1857 1852 26
1858 1852 26
1859 1852 26
1860 1852 17
1861 1852 17
1863 1852 17
1864 1852 17
1865 1852 17
1866 1852 16
1868 1852 16
1870 1852 16
1871 1852 16
1872 1852 16
1854 1853 58
1866 1853 37
1867 1853 37
1868 1853 37
1876 1853 58
1877 1853 58
1878 1853 58
1879 1853 38
1880 1853 38
1881 1853 36
1897 1853 37
1898 1853 37
1899 1853 37
1900 1853 24
1901 1853 24
1902 1853 24
1866 1854 37
1867 1854 37
1868 1854 37
1876 1854 58
1877 1854 58
1878 1854 58
1879 1854 38
1880 1854 38
1881 1854 36
1897 1854 37
1898 1854 37
1899 1854 37
1900 1854 24
1901 1854 24
1902 1854 24
1856 1855 55
1857 1855 32
1858 1855 32
1859 1855 26
1860 1855 36
1861 1855 36
1862 1855 29
1863 1855 21
1864 1855 23
1865 1855 19
1873 1855 38
1874 1855 38
1875 1855 44
1879 1855 38
1880 1855 38
1881 1855 36
1894 1855 27
1895 1855 24
1896 1855 29
1900 1855 27
1901 1855 24
1902 1855 24
1857 1856 32
1858 1856 32
1859 1856 26
1860 1856 36
1861 1856 36
1862 1856 29
1863 1856 21
1864 1856 23
1865 1856 19
1873 1856 38
1874 1856 38
1875 1856 44
1879 1856 38
1880 1856 38
1881 1856 36
1894 1856 27
1895 1856 24
1896 1856 29
1900 1856 27
1901 1856 24
1902 1856 24
1858 1857 47
1859 1857 26
1860 1857 22
1861 1857 21
1862 1857 24
1863 1857 31
1864 1857 31
1865 1857 17
1875 1857 28
1891 1857 13
1892 1857 15
1896 1857 21
1859 1858 26
1860 1858 22
1861 1858 21
1862 1858 24
1863 1858 31
1864 1858 31
1865 1858 17
1875 1858 28
1891 1858 13
1892 1858 15
1896 1858 21
1860 1859 17
1861 1859 17
1863 1859 17
1864 1859 17
1865 1859 17
1861 1860 36
1862 1860 30
1863 1860 22
1864 1860 24
1865 1860 19
1873 1860 24
1874 1860 24
1875 1860 29
1879 1860 24
1880 1860 24
1881 1860 24
1892 1860 11
1894 1860 28
1895 1860 24
1896 1860 30
1900 1860 28
1901 1860 24
1902 1860 24
1862 1861 29
1863 1861 21
1864 1861 23
1865 1861 19
1873 1861 24
1874 1861 24
1875 1861 28
1879 1861 24
1880 1861 24
1881 1861 24
1894 1861 27
1895 1861 24
1896 1861 29
1900 1861 27
1901 1861 24
1902 1861 24
1863 1862 27
1864 1862 29
1873 1862 24
1874 1862 24
1875 1862 32
1879 1862 24
1880 1862 24
1881 1862 24
1891 1862 16
1892 1862 20
1894 1862 26
1895 1862 24
1896 1862 39
1900 1862 26
1901 1862 24
1902 1862 24
1864 1863 34
1865 1863 17
1875 1863 18
1891 1863 16
1892 1863 18
1896 1863 24
1865 1864 19
1875 1864 20
1891 1864 16
1892 1864 20
1894 1864 16
1896 1864 26
1900 1864 16
1894 1865 11
1900 1865 11
1867 1866 37
1868 1866 57
1869 1866 10
1870 1866 26
1871 1866 29
1872 1866 29
1876 1866 37
1877 1866 37
1878 1866 37
1879 1866 24
1880 1866 24
1881 1866 24
1897 1866 42
1898 1866 37
1899 1866 37
1900 1866 27
1901 1866 24
1902 1866 24
1868 1867 37
1876 1867 37
1877 1867 37
1878 1867 37
1879 1867 24
1880 1867 24
1881 1867 24
1897 1867 37
1898 1867 37
1899 1867 37
1900 1867 24
1901 1867 24
1902 1867 24
1869 1868 10
1870 1868 26
1871 1868 29
1872 1868 29
1876 1868 37
1877 1868 37
1878 1868 37
1879 1868 24
1880 1868 24
1881 1868 24
1897 1868 42
1898 1868 37
1899 1868 37
1900 1868 27
1901 1868 24
1902 1868 24
1871 1870 26
1872 1870 26
1872 1871 29
1897 1871 18
1900 1871 11
1897 1872 18
1900 1872 11
1874 1873 56
1875 1873 56
1879 1873 56
1880 1873 56
1881 1873 54
1894 1873 36
1895 1873 36
1896 1873 36
1900 1873 36
1901 1873 36
1902 1873 36
1903 1873 34
1904 1873 34
1905 1873 34
1906 1873 34
1907 1873 33
1908 1873 34
1927 1873 22
1928 1873 22
1929 1873 22
1930 1873 22
1931 1873 22
1932 1873 22
1875 1874 56
1879 1874 56
1880 1874 56
1881 1874 54
1894 1874 36
1895 1874 36
1896 1874 36
1900 1874 36
1901 1874 36
1902 1874 36
1903 1874 34
1904 1874 34
1905 1874 34
1906 1874 34
1907 1874 33
1908 1874 34
1927 1874 22
1928 1874 22
1929 1874 22
1930 1874 22
1931 1874 22
1932 1874 22
1879 1875 56
1880 1875 56
1881 1875 54
1891 1875 16
1892 1875 20
1894 1875 38
1895 1875 36
1896 1875 48
1900 1875 38
1901 1875 36
1902 1875 36
1903 1875 34
1904 1875 34
1905 1875 34
1906 1875 34
1907 1875 33
1908 1875 42
1917 1875 10
1918 1875 10
1927 1875 22
1928 1875 22
1929 1875 30
1930 1875 22
1931 1875 22
1932 1875 22
1877 1876 85
1878 1876 85
1879 1876 56
1880 1876 56
1881 1876 54
1897 1876 55
1898 1876 55
1899 1876 55
1900 1876 36
1901 1876 36
1902 1876 36
1903 1876 34
1904 1876 34
1905 1876 34
1909 1876 52
1910 1876 51
1911 1876 52
1920 1876 34
1921 1876 34
1922 1876 34
1930 1876 22
1931 1876 22
1932 1876 22
1878 1877 85
1879 1877 56
1880 1877 56
1881 1877 54
1897 1877 55
1898 1877 55
1899 1877 55
1900 1877 36
1901 1877 36
1902 1877 36
1903 1877 34
1904 1877 34
1905 1877 34
1909 1877 52
1910 1877 51
1911 1877 52
1920 1877 34
1921 1877 34
1922 1877 34
1930 1877 22
1931 1877 22
1932 1877 22
1879 1878 56
1880 1878 56
1881 1878 54
1897 1878 55
1898 1878 55
1899 1878 55
1900 1878 36
1901 1878 36
1902 1878 36
1903 1878 34
1904 1878 34
1905 1878 34
1909 1878 52
1910 1878 51
1911 1878 52
1920 1878 34
1921 1878 34
1922 1878 34
1930 1878 22
1931 1878 22
1932 1878 22
1880 1879 85
1881 1879 83
1894 1879 36
1895 1879 36
1896 1879 36
1897 1879 36
1898 1879 36
1899 1879 36
1900 1879 55
1901 1879 55
1902 1879 55
1903 1879 52
1904 1879 52
1905 1879 52
1906 1879 34
1907 1879 33
1908 1879 34
1909 1879 34
1910 1879 34
1911 1879 34
1920 1879 22
1921 1879 22
1922 1879 22
1927 1879 22
1928 1879 22
1929 1879 22
1930 1879 34
1931 1879 34
1932 1879 34
1881 1880 83
1894 1880 36
1895 1880 36
1896 1880 36
1897 1880 36
1898 1880 36
1899 1880 36
1900 1880 55
1901 1880 55
1902 1880 55
1903 1880 52
1904 1880 52
1905 1880 52
1906 1880 34
1907 1880 33
1908 1880 34
1909 1880 34
1910 1880 34
1911 1880 34
1920 1880 22
1921 1880 22
1922 1880 22
1927 1880 22
1928 1880 22
1929 1880 22
1930 1880 34
1931 1880 34
1932 1880 34
1894 1881 36
1895 1881 36
1896 1881 36
1897 1881 36
1898 1881 36
1899 1881 36
1900 1881 55
1901 1881 55
1902 1881 55
1903 1881 52
1904 1881 52
1905 1881 52
1906 1881 34
1907 1881 33
1908 1881 34
1909 1881 34
1910 1881 34
1911 1881 34
1920 1881 22
1921 1881 22
1922 1881 22
1927 1881 22
1928 1881 22
1929 1881 22
1930 1881 34
1931 1881 34
1932 1881 34
1892 1891 25
1896 1891 25
1908 1891 10
1917 1891 16
1918 1891 16
1929 1891 16
1894 1892 10
1896 1892 29
1900 1892 10
1908 1892 12
1917 1892 16
1918 1892 16
1929 1892 18
1895 1894 36
1896 1894 38
1900 1894 40
1901 1894 36
1902 1894 36
1903 1894 22
1904 1894 22
1905 1894 22
1906 1894 22
1907 1894 22
1908 1894 23
1927 1894 22
1928 1894 22
1929 1894 23
1930 1894 22
1931 1894 22
1932 1894 22
1896 1895 36
1900 1895 36
1901 1895 36
1902 1895 36
1903 1895 22
1904 1895 22
1905 1895 22
1906 1895 22
1907 1895 22
1908 1895 22
1927 1895 22
1928 1895 22
1929 1895 22
1930 1895 22
1931 1895 22
1932 1895 22
1900 1896 38
1901 1896 36
1902 1896 36
1903 1896 22
1904 1896 22
1905 1896 22
1906 1896 22
1907 1896 22
1908 1896 30
1917 1896 16
1918 1896 16
1927 1896 22
1928 1896 22
1929 1896 36
1930 1896 22
1931 1896 22
1932 1896 22
1898 1897 55
1899 1897 55
1900 1897 39
1901 1897 36
1902 1897 36
1903 1897 22
1904 1897 22
1905 1897 22
1909 1897 34
1910 1897 34
1911 1897 34
1920 1897 34
1921 1897 34
1922 1897 34
1930 1897 22
1931 1897 22
1932 1897 22
1899 1898 55
1900 1898 36
1901 1898 36
1902 1898 36
1903 1898 22
1904 1898 22
1905 1898 22
1909 1898 34
1910 1898 34
1911 1898 34
1920 1898 34
1921 1898 34
1922 1898 34
1930 1898 22
1931 1898 22
1932 1898 22
1900 1899 36
1901 1899 36
1902 1899 36
1903 1899 22
1904 1899 22
1905 1899 22
1909 1899 34
1910 1899 34
1911 1899 34
1920 1899 34
1921 1899 34
1922 1899 34
1930 1899 22
1931 1899 22
1932 1899 22
1901 1900 55
1902 1900 55
1903 1900 34
1904 1900 34
1905 1900 34
1906 1900 22
1907 1900 22
1908 1900 23
1909 1900 22
1910 1900 22
1911 1900 22
1920 1900 22
1921 1900 22
1922 1900 22
1927 1900 22
1928 1900 22
1929 1900 23
1930 1900 34
1931 1900 34
1932 1900 34
1902 1901 55
1903 1901 34
1904 1901 34
1905 1901 34
1906 1901 22
1907 1901 22
1908 1901 22
1909 1901 22
1910 1901 22
1911 1901 22
1920 1901 22
1921 1901 22
1922 1901 22
1927 1901 22
1928 1901 22
1929 1901 22
1930 1901 34
1931 1901 34
1932 1901 34
1903 1902 34
1904 1902 34
1905 1902 34
1906 1902 22
1907 1902 22
1908 1902 22
1909 1902 22
1910 1902 22
1911 1902 22
1920 1902 22
1921 1902 22
1922 1902 22
1927 1902 22
1928 1902 22
1929 1902 22
1930 1902 34
1931 1902 34
1932 1902 34
1904 1903 79
1905 1903 79
1906 1903 52
1907 1903 51
1908 1903 52
1909 1903 52
1910 1903 52
1911 1903 52
1920 1903 34
1921 1903 34
1922 1903 34
1927 1903 34
1928 1903 34
1929 1903 34
1930 1903 52
1931 1903 52
1932 1903 52
1935 1903 34
1936 1903 34
1937 1903 34
1958 1903 22
1959 1903 22
1960 1903 22
1968 1903 34
1969 1903 34
1970 1903 34
1971 1903 52
1972 1903 52
1973 1903 52
1979 1903 34
1980 1903 34
1981 1903 34
1996 1903 22
1997 1903 22
1998 1903 22
1905 1904 79
1906 1904 52
1907 1904 51
1908 1904 52
1909 1904 52
1910 1904 52
1911 1904 52
1920 1904 34
1921 1904 34
1922 1904 34
1927 1904 34
1928 1904 34
1929 1904 34
1930 1904 52
1931 1904 52
1932 1904 52
1935 1904 34
1936 1904 34
1937 1904 34
1958 1904 22
1959 1904 22
1960 1904 22
1968 1904 34
1969 1904 34
1970 1904 34
1971 1904 52
1972 1904 52
1973 1904 52
1979 1904 34
1980 1904 34
1981 1904 34
1996 1904 22
1997 1904 22
1998 1904 22
1906 1905 52
1907 1905 51
1908 1905 52
1909 1905 52
1910 1905 52
1911 1905 52
1920 1905 34
1921 1905 34
1922 1905 34
1927 1905 34
1928 1905 34
1929 1905 34
1930 1905 52
1931 1905 52
1932 1905 52
1935 1905 34
1936 1905 34
1937 1905 34
1958 1905 22
1959 1905 22
1960 1905 22
1968 1905 34
1969 1905 34
1970 1905 34
1971 1905 52
1972 1905 52
1973 1905 52
1979 1905 34
1980 1905 34
1981 1905 34
1996 1905 22
1997 1905 22
1998 1905 22
1907 1906 51
1908 1906 52
1927 1906 34
1928 1906 34
1929 1906 34
1930 1906 34
1931 1906 34
1932 1906 34
1958 1906 22
1959 1906 22
1960 1906 22
1968 1906 22
1969 1906 22
1970 1906 22
1971 1906 34
1972 1906 34
1973 1906 34
1979 1906 34
1980 1906 34
1981 1906 34
1908 1907 51
1927 1907 34
1928 1907 34
1929 1907 34
1930 1907 34
1931 1907 34
1932 1907 34
1958 1907 22
1959 1907 22
1960 1907 22
1968 1907 22
1969 1907 22
1970 1907 22
1971 1907 33
1972 1907 33
1973 1907 33
1979 1907 33
1980 1907 33
1981 1907 33
1917 1908 16
1918 1908 16
1927 1908 34
1928 1908 34
1929 1908 46
1930 1908 34
1931 1908 34
1932 1908 34
1939 1908 10
1940 1908 12
1958 1908 23
1959 1908 22
1960 1908 30
1968 1908 23
1969 1908 22
1970 1908 22
1971 1908 34
1972 1908 34
1973 1908 34
1979 1908 34
1980 1908 34
1981 1908 42
1910 1909 78
1911 1909 79
1920 1909 52
1921 1909 52
1922 1909 52
1930 1909 34
1931 1909 34
1932 1909 34
1935 1909 52
1936 1909 52
1937 1909 52
1968 1909 22
1969 1909 22
1970 1909 22
1971 1909 34
1972 1909 34
1973 1909 34
1996 1909 34
1997 1909 34
1998 1909 34
1911 1910 78
1920 1910 52
1921 1910 52
1922 1910 52
1930 1910 34
1931 1910 34
1932 1910 34
1935 1910 51
1936 1910 51
1937 1910 51
1968 1910 22
1969 1910 22
1970 1910 22
1971 1910 34
1972 1910 34
1973 1910 34
1996 1910 34
1997 1910 34
1998 1910 34
1920 1911 52
1921 1911 52
1922 1911 52
1930 1911 34
1931 1911 34
1932 1911 34
1935 1911 52
1936 1911 52
1937 1911 52
1968 1911 22
1969 1911 22
1970 1911 22
1971 1911 34
1972 1911 34
1973 1911 34
1996 1911 34
1997 1911 34
1998 1911 34
1918 1917 25
1929 1917 25
1939 1917 16
1940 1917 16
1960 1917 16
1981 1917 10
1929 1918 25
1939 1918 16
1940 1918 16
1960 1918 16
1981 1918 10
1921 1920 52
1922 1920 52
1930 1920 34
1931 1920 34
1932 1920 34
1935 1920 34
1936 1920 34
1937 1920 34
1968 1920 22
1969 1920 22
1970 1920 22
1971 1920 22
1972 1920 22
1973 1920 22
1996 1920 34
1997 1920 34
1998 1920 34
1922 1921 52
1930 1921 34
1931 1921 34
1932 1921 34
1935 1921 34
1936 1921 34
1937 1921 34
1968 1921 22
1969 1921 22
1970 1921 22
1971 1921 22
1972 1921 22
1973 1921 22
1996 1921 34
1997 1921 34
1998 1921 34
1930 1922 34
1931 1922 34
1932 1922 34
1935 1922 34
1936 1922 34
1937 1922 34
1968 1922 22
1969 1922 22
1970 1922 22
1971 1922 22
1972 1922 22
1973 1922 22
1996 1922 34
1997 1922 34
1998 1922 34
1928 1927 34
1929 1927 34
1930 1927 34
1931 1927 34
1932 1927 34
1958 1927 22
1959 1927 22
1960 1927 22
1968 1927 22
1969 1927 22
1970 1927 22
1971 1927 22
1972 1927 22
1973 1927 22
1979 1927 22
1980 1927 22
1981 1927 22
1929 1928 34
1930 1928 34
1931 1928 34
1932 1928 34
1958 1928 22
1959 1928 22
1960 1928 22
1968 1928 22
1969 1928 22
1970 1928 22
1971 1928 22
1972 1928 22
1973 1928 22
1979 1928 22
1980 1928 22
1981 1928 22
1930 1929 34
1931 1929 34
1932 1929 34
1939 1929 16
1940 1929 18
1958 1929 23
1959 1929 22
1960 1929 36
1968 1929 23
1969 1929 22
1970 1929 22
1971 1929 22
1972 1929 22
1973 1929 22
1979 1929 22
1980 1929 22
1981 1929 30
1931 1930 52
1932 1930 52
1935 1930 22
1936 1930 22
1937 1930 22
1958 1930 22
1959 1930 22
1960 1930 22
1968 1930 34
1969 1930 34
1970 1930 34
1971 1930 34
1972 1930 34
1973 1930 34
1979 1930 22
1980 1930 22
1981 1930 22
1996 1930 22
1997 1930 22
1998 1930 22
1932 1931 52
1935 1931 22
1936 1931 22
1937 1931 22
1958 1931 22
1959 1931 22
1960 1931 22
1968 1931 34
1969 1931 34
1970 1931 34
1971 1931 34
1972 1931 34
1973 1931 34
1979 1931 22
1980 1931 22
1981 1931 22
1996 1931 22
1997 1931 22
1998 1931 22
1935 1932 22
1936 1932 22
1937 1932 22
1958 1932 22
1959 1932 22
1960 1932 22
1968 1932 34
1969 1932 34
1970 1932 34
1971 1932 34
1972 1932 34
1973 1932 34
1979 1932 22
1980 1932 22
1981 1932 22
1996 1932 22
1997 1932 22
1998 1932 22
1934 1933 37
1935 1933 24
1936 1933 24
1937 1933 24
1940 1933 11
1942 1933 33
1943 1933 33
1944 1933 19
1945 1933 19
1946 1933 14
1947 1933 34
1948 1933 33
1949 1933 30
1950 1933 19
1951 1933 21
1952 1933 16
1953 1933 31
1954 1933 31
1956 1933 13
1957 1933 13
1958 1933 28
1959 1933 24
1960 1933 30
1961 1933 24
1962 1933 30
1963 1933 51
1964 1933 10
1967 1933 26
1968 1933 43
1969 1933 37
1970 1933 37
1971 1933 37
1972 1933 37
1973 1933 37
1974 1933 31
1976 1933 13
1977 1933 15
1978 1933 15
1979 1933 24
1980 1933 24
1981 1933 29
1982 1933 37
1983 1933 37
1992 1933 24
1993 1933 24
1994 1933 31
1995 1933 24
1996 1933 27
1997 1933 24
1998 1933 24
1999 1933 51
2000 1933 51
2003 1933 23
1935 1934 24
1936 1934 24
1937 1934 24
1942 1934 24
1943 1934 24
1947 1934 24
1948 1934 24
1949 1934 24
1953 1934 24
1954 1934 24
1958 1934 24
1959 1934 24
1960 1934 24
1961 1934 24
1962 1934 24
1963 1934 37
1968 1934 37
1969 1934 37
1970 1934 37
1971 1934 37
1972 1934 37
1973 1934 37
1974 1934 24
1979 1934 24
1980 1934 24
1981 1934 24
1982 1934 37
1983 1934 37
1992 1934 24
1993 1934 24
1994 1934 24
1995 1934 24
1996 1934 24
1997 1934 24
1998 1934 24
1999 1934 37
2000 1934 37
1936 1935 85
1937 1935 85
1953 1935 58
1954 1935 58
1963 1935 24
1968 1935 36
1969 1935 36
1970 1935 36
1971 1935 56
1972 1935 56
1973 1935 56
1974 1935 37
1982 1935 38
1983 1935 38
1992 1935 58
1993 1935 58
1994 1935 37
1995 1935 37
1996 1935 55
1997 1935 55
1998 1935 55
1999 1935 38
2000 1935 38
1937 1936 85
1953 1936 58
1954 1936 58
1963 1936 24
1968 1936 36
1969 1936 36
1970 1936 36
1971 1936 56
1972 1936 56
1973 1936 56
1974 1936 37
1982 1936 38
1983 1936 38
1992 1936 58
1993 1936 58
1994 1936 37
1995 1936 37
1996 1936 55
1997 1936 55
1998 1936 55
1999 1936 38
2000 1936 38
1953 1937 58
1954 1937 58
1963 1937 24
1968 1937 36
1969 1937 36
1970 1937 36
1971 1937 56
1972 1937 56
1973 1937 56
1974 1937 37
1982 1937 38
1983 1937 38
1992 1937 58
1993 1937 58
1994 1937 37
1995 1937 37
1996 1937 55
1997 1937 55
1998 1937 55
1999 1937 38
2000 1937 38
1940 1939 25
1944 1939 13
1945 1939 13
1949 1939 16
1950 1939 16
1951 1939 16
1960 1939 25
1962 1939 13
1981 1939 16
1944 1940 15
1945 1940 15
1947 1940 11
1949 1940 20
1950 1940 18
1951 1940 20
1958 1940 10
1960 1940 29
1962 1940 17
1968 1940 10
1981 1940 20
1943 1942 55
1944 1942 32
1945 1942 32
1946 1942 26
1947 1942 36
1948 1942 36
1949 1942 29
1950 1942 21
1951 1942 23
1952 1942 19
1958 1942 27
1959 1942 24
1960 1942 29
1961 1942 38
1962 1942 45
1963 1942 33
1964 1942 10
1965 1942 13
1966 1942 13
1967 1942 19
1968 1942 27
1969 1942 24
1970 1942 24
1971 1942 38
1972 1942 38
1973 1942 38
1979 1942 38
1980 1942 38
1981 1942 44
1982 1942 38
1983 1942 38
1999 1942 52
2000 1942 53
2002 1942 23
2003 1942 26
1944 1943 32
1945 1943 32
1946 1943 26
1947 1943 36
1948 1943 36
1949 1943 29
1950 1943 21
1951 1943 23
1952 1943 19
1958 1943 27
1959 1943 24
1960 1943 29
1961 1943 38
1962 1943 45
1963 1943 33
1964 1943 10
1965 1943 13
1966 1943 13
1967 1943 19
1968 1943 27
1969 1943 24
1970 1943 24
1971 1943 38
1972 1943 38
1973 1943 38
1979 1943 38
1980 1943 38
1981 1943 44
1982 1943 38
1983 1943 38
1999 1943 52
2000 1943 53
2002 1943 23
2003 1943 26
1945 1944 47
1946 1944 26
1947 1944 22
1948 1944 21
1949 1944 24
1950 1944 31
1951 1944 31
1952 1944 17
1960 1944 21
1962 1944 37
1963 1944 18
1965 1944 13
1966 1944 13
1967 1944 17
1981 1944 28
1999 1944 29
2000 1944 30
2002 1944 23
2003 1944 26
1946 1945 26
1947 1945 22
1948 1945 21
1949 1945 24
1950 1945 31
1951 1945 31
1952 1945 17
1960 1945 21
1962 1945 37
1963 1945 18
1965 1945 13
1966 1945 13
1967 1945 17
1981 1945 28
1999 1945 29
2000 1945 30
2002 1945 23
2003 1945 26
1947 1946 17
1948 1946 17
1950 1946 17
1951 1946 17
1952 1946 17
1963 1946 14
1965 1946 13
1966 1946 13
1967 1946 17
1999 1946 23
2000 1946 24
2002 1946 23
2003 1946 26
1948 1947 36
1949 1947 30
1950 1947 22
1951 1947 24
1952 1947 19
1958 1947 28
1959 1947 24
1960 1947 30
1961 1947 24
1962 1947 30
1963 1947 33
1964 1947 10
1965 1947 13
1966 1947 13
1967 1947 19
1968 1947 28
1969 1947 24
1970 1947 24
1971 1947 24
1972 1947 24
1973 1947 24
1979 1947 24
1980 1947 24
1981 1947 29
1982 1947 24
1983 1947 24
1999 1947 33
2000 1947 34
2002 1947 14
2003 1947 17
1949 1948 29
1950 1948 21
1951 1948 23
1952 1948 19
1958 1948 27
1959 1948 24
1960 1948 29
1961 1948 24
1962 1948 29
1963 1948 33
1964 1948 10
1965 1948 13
1966 1948 13
1967 1948 19
1968 1948 27
1969 1948 24
1970 1948 24
1971 1948 24
1972 1948 24
1973 1948 24
1979 1948 24
1980 1948 24
1981 1948 28
1982 1948 24
1983 1948 24
1999 1948 33
2000 1948 34
2002 1948 14
2003 1948 17
1950 1949 27
1951 1949 29
1958 1949 26
1959 1949 24
1960 1949 39
1961 1949 24
1962 1949 39
1963 1949 29
1964 1949 10
1968 1949 26
1969 1949 24
1970 1949 24
1971 1949 24
1972 1949 24
1973 1949 24
1979 1949 24
1980 1949 24
1981 1949 32
1982 1949 24
1983 1949 24
1999 1949 29
2000 1949 29
1951 1950 34
1952 1950 17
1960 1950 24
1962 1950 24
1963 1950 18
1965 1950 13
1966 1950 13
1967 1950 17
1981 1950 18
1999 1950 18
2000 1950 19
2002 1950 14
2003 1950 17
1952 1951 19
1958 1951 16
1960 1951 26
1962 1951 26
1963 1951 20
1965 1951 13
1966 1951 13
1967 1951 19
1968 1951 16
1981 1951 20
1999 1951 20
2000 1951 21
2002 1951 14
2003 1951 17
1958 1952 11
1963 1952 16
1965 1952 13
1966 1952 13
1967 1952 19
1968 1952 11
1999 1952 16
2000 1952 17
2002 1952 14
2003 1952 17
1954 1953 84
1956 1953 39
1957 1953 39
1963 1953 31
1965 1953 12
1966 1953 12
1967 1953 18
1968 1953 27
1969 1953 24
1970 1953 24
1971 1953 38
1972 1953 38
1973 1953 38
1974 1953 55
1976 1953 26
1977 1953 29
1978 1953 29
1982 1953 38
1983 1953 38
1992 1953 58
1993 1953 58
1994 1953 55
1995 1953 37
1996 1953 42
1997 1953 37
1998 1953 37
1999 1953 49
2000 1953 50
2002 1953 21
2003 1953 24
1956 1954 39
1957 1954 39
1963 1954 31
1965 1954 12
1966 1954 12
1967 1954 18
1968 1954 27
1969 1954 24
1970 1954 24
1971 1954 38
1972 1954 38
1973 1954 38
1974 1954 55
1976 1954 26
1977 1954 29
1978 1954 29
1982 1954 38
1983 1954 38
1992 1954 58
1993 1954 58
1994 1954 55
1995 1954 37
1996 1954 42
1997 1954 37
1998 1954 37
1999 1954 49
2000 1954 50
2002 1954 21
2003 1954 24
1957 1956 39
1963 1956 13
1965 1956 12
1966 1956 12
1967 1956 16
1974 1956 26
1976 1956 26
1977 1956 26
1978 1956 26
1994 1956 26
1999 1956 21
2000 1956 22
2002 1956 21
2003 1956 24
1963 1957 13
1965 1957 12
1966 1957 12
1967 1957 16
1974 1957 26
1976 1957 26
1977 1957 26
1978 1957 26
1994 1957 26
1999 1957 21
2000 1957 22
2002 1957 21
2003 1957 24
1959 1958 36
1960 1958 38
1961 1958 24
1962 1958 26
1963 1958 27
1967 1958 11
1968 1958 40
1969 1958 36
1970 1958 36
1971 1958 36
1972 1958 36
1973 1958 36
1979 1958 36
1980 1958 36
1981 1958 38
1982 1958 24
1983 1958 24
1999 1958 27
2000 1958 27
1960 1959 36
1961 1959 24
1962 1959 24
1963 1959 24
1968 1959 36
1969 1959 36
1970 1959 36
1971 1959 36
1972 1959 36
1973 1959 36
1979 1959 36
1980 1959 36
1981 1959 36
1982 1959 24
1983 1959 24
1999 1959 24
2000 1959 24
1961 1960 24
1962 1960 36
1963 1960 29
1964 1960 10
1968 1960 38
1969 1960 36
1970 1960 36
1971 1960 36
1972 1960 36
1973 1960 36
1979 1960 36
1980 1960 36
1981 1960 48
1982 1960 24
1983 1960 24
1999 1960 29
2000 1960 29
1962 1961 38
1963 1961 24
1968 1961 24
1969 1961 24
1970 1961 24
1971 1961 38
1972 1961 38
1973 1961 38
1979 1961 38
1980 1961 38
1981 1961 38
1982 1961 38
1983 1961 38
1999 1961 38
2000 1961 38
1963 1962 29
1964 1962 10
1968 1962 26
1969 1962 24
1970 1962 24
1971 1962 38
1972 1962 38
1973 1962 38
1979 1962 38
1980 1962 38
1981 1962 50
1982 1962 38
1983 1962 38
1999 1962 45
2000 1962 45
1964 1963 10
1967 1963 26
1968 1963 42
1969 1963 37
1970 1963 37
1971 1963 37
1972 1963 37
1973 1963 37
1974 1963 31
1976 1963 13
1977 1963 15
1978 1963 15
1979 1963 24
1980 1963 24
1981 1963 28
1982 1963 37
1983 1963 37
1992 1963 24
1993 1963 24
1994 1963 31
1995 1963 24
1996 1963 27
1997 1963 24
1998 1963 24
1999 1963 51
2000 1963 51
2003 1963 23
1999 1964 10
2000 1964 10
1966 1965 22
1967 1965 22
1974 1965 12
1976 1965 12
1977 1965 12
1978 1965 12
1994 1965 12
2002 1965 22
2003 1965 22
1967 1966 22
1974 1966 12
1976 1966 12
1977 1966 12
1978 1966 12
1994 1966 12
2002 1966 22
2003 1966 22
1968 1967 18
1974 1967 18
1976 1967 16
1977 1967 18
1978 1967 18
1994 1967 18
1996 1967 11
1999 1967 26
2000 1967 27
2002 1967 23
2003 1967 26
1969 1968 55
1970 1968 55
1971 1968 55
1972 1968 55
1973 1968 55
1974 1968 27
1977 1968 11
1978 1968 11
1979 1968 36
1980 1968 36
1981 1968 38
1982 1968 37
1983 1968 37
1992 1968 24
1993 1968 24
1994 1968 27
1995 1968 24
1996 1968 39
1997 1968 36
1998 1968 36
1999 1968 42
2000 1968 42
1970 1969 55
1971 1969 55
1972 1969 55
1973 1969 55
1974 1969 24
1979 1969 36
1980 1969 36
1981 1969 36
1982 1969 37
1983 1969 37
1992 1969 24
1993 1969 24
1994 1969 24
1995 1969 24
1996 1969 36
1997 1969 36
1998 1969 36
1999 1969 37
2000 1969 37
1971 1970 55
1972 1970 55
1973 1970 55
1974 1970 24
1979 1970 36
1980 1970 36
1981 1970 36
1982 1970 37
1983 1970 37
1992 1970 24
1993 1970 24
1994 1970 24
1995 1970 24
1996 1970 36
1997 1970 36
1998 1970 36
1999 1970 37
2000 1970 37
1972 1971 85
1973 1971 85
1974 1971 24
1979 1971 56
1980 1971 56
1981 1971 56
1982 1971 58
1983 1971 58
1992 1971 38
1993 1971 38
1994 1971 24
1995 1971 24
1996 1971 36
1997 1971 36
1998 1971 36
1999 1971 58
2000 1971 58
1973 1972 85
1974 1972 24
1979 1972 56
1980 1972 56
1981 1972 56
1982 1972 58
1983 1972 58
1992 1972 38
1993 1972 38
1994 1972 24
1995 1972 24
1996 1972 36
1997 1972 36
1998 1972 36
1999 1972 58
2000 1972 58
1974 1973 24
1979 1973 56
1980 1973 56
1981 1973 56
1982 1973 58
1983 1973 58
1992 1973 38
1993 1973 38
1994 1973 24
1995 1973 24
1996 1973 36
1997 1973 36
1998 1973 36
1999 1973 58
2000 1973 58
1976 1974 26
1977 1974 29
1978 1974 29
1982 1974 24
1983 1974 24
1992 1974 37
1993 1974 37
1994 1974 55
1995 1974 37
1996 1974 42
1997 1974 37
1998 1974 37
1999 1974 31
2000 1974 32
2002 1974 13
2003 1974 16
1977 1976 26
1978 1976 26
1994 1976 26
1999 1976 13
2000 1976 14
2002 1976 13
2003 1976 16
1978 1977 29
1994 1977 29
1996 1977 18
1999 1977 15
2000 1977 16
2002 1977 13
2003 1977 16
1994 1978 29
1996 1978 18
1999 1978 15
2000 1978 16
2002 1978 13
2003 1978 16
1980 1979 56
1981 1979 56
1982 1979 38
1983 1979 38
1999 1979 38
2000 1979 38
1981 1980 56
1982 1980 38
1983 1980 38
1999 1980 38
2000 1980 38
1982 1981 38
1983 1981 38
1999 1981 44
2000 1981 44
1983 1982 58
1992 1982 38
1993 1982 38
1994 1982 24
1995 1982 24
1996 1982 24
1997 1982 24
1998 1982 24
1999 1982 58
2000 1982 58
1992 1983 38
1993 1983 38
1994 1983 24
1995 1983 24
1996 1983 24
1997 1983 24
1998 1983 24
1999 1983 58
2000 1983 58
1993 1992 58
1994 1992 37
1995 1992 37
1996 1992 37
1997 1992 37
1998 1992 37
1999 1992 38
2000 1992 38
1994 1993 37
1995 1993 37
1996 1993 37
1997 1993 37
1998 1993 37
1999 1993 38
2000 1993 38
1995 1994 37
1996 1994 42
1997 1994 37
1998 1994 37
1999 1994 31
2000 1994 32
2002 1994 13
2003 1994 16
1996 1995 37
1997 1995 37
1998 1995 37
1999 1995 24
2000 1995 24
1997 1996 55
1998 1996 55
1999 1996 27
2000 1996 27
1998 1997 55
1999 1997 24
2000 1997 24
1999 1998 24
2000 1998 24
2000 1999 79
2003 1999 36
2002 2000 34
2003 2000 37
2003 2002 36
