%%MatrixMarket matrix coordinate integer symmetric
%%GraphBLAS type uint32_t
2003 2003 126
1033 1032 33
1034 1032 33
1035 1032 33
1039 1032 33
1040 1032 33
1041 1032 33
1034 1033 33
1035 1033 33
1039 1033 33
1040 1033 33
1041 1033 33
1035 1034 33
1039 1034 33
1040 1034 33
1041 1034 33
1039 1035 33
1040 1035 33
1041 1035 33
1040 1039 33
1041 1039 33
1041 1040 33
1160 1159 33
1161 1159 33
1162 1159 33
1163 1159 33
1164 1159 33
1165 1159 33
1161 1160 33
1162 1160 33
1163 1160 33
1164 1160 33
1165 1160 33
1162 1161 33
1163 1161 33
1164 1161 33
1165 1161 33
1163 1162 33
1164 1162 33
1165 1162 33
1164 1163 33
1165 1163 33
1165 1164 33
1324 1323 33
1325 1323 33
1326 1323 33
1344 1323 33
1345 1323 33
1346 1323 33
1325 1324 33
1326 1324 33
1344 1324 33
1345 1324 33
1346 1324 33
1326 1325 33
1344 1325 33
1345 1325 33
1346 1325 33
1344 1326 33
1345 1326 33
1346 1326 33
1345 1344 33
1346 1344 33
1346 1345 33
1471 1470 33
1472 1470 33
1473 1470 33
1474 1470 33
1479 1470 33
1480 1470 33
1472 1471 33
1473 1471 33
1474 1471 33
1479 1471 33
1480 1471 33
1473 1472 33
1474 1472 33
1479 1472 33
1480 1472 33
1474 1473 33
1479 1473 33
1480 1473 33
1479 1474 33
1480 1474 33
1480 1479 33
1803 1802 33
1817 1802 33
1818 1802 33
1819 1802 33
1827 1802 33
1828 1802 33
1817 1803 33
1818 1803 33
1819 1803 33
1827 1803 33
1828 1803 33
1808 1807 33
1809 1807 33
1820 1807 33
1821 1807 33
1825 1807 33
1826 1807 33
1809 1808 33
1820 1808 33
1821 1808 33
1825 1808 33
1826 1808 33
1820 1809 33
1821 1809 33
1825 1809 33
1826 1809 33
1818 1817 33
1819 1817 33
1827 1817 33
1828 1817 33
1819 1818 33
1827 1818 33
1828 1818 33
1827 1819 33
1828 1819 33
1821 1820 33
1825 1820 33
1826 1820 33
1825 1821 33
1826 1821 33
1826 1825 33
1828 1827 33
