%%MatrixMarket matrix coordinate pattern symmetric
%%GraphBLAS type double_t
1138 1138 2596
1 1
5 1
563 1
2 2
10 2
563 2
3 3
11 3
34 3
35 3
104 3
475 3
4 4
7 4
27 4
101 4
102 4
103 4
5 5
9 5
6 6
7 6
37 6
98 6
103 6
7 7
37 7
101 7
102 7
103 7
8 8
26 8
35 8
724 8
9 9
10 9
104 9
10 10
104 10
11 11
12 11
38 11
566 11
12 12
13 13
34 13
104 13
14 14
413 14
15 15
16 15
17 15
18 15
19 15
411 15
16 16
17 17
18 18
19 19
20 20
21 20
37 20
102 20
21 21
22 21
23 21
24 21
25 21
22 22
23 23
24 24
25 25
26 26
35 26
27 27
28 27
29 27
30 27
101 27
28 28
29 29
30 30
31 31
32 31
100 31
32 32
100 32
33 33
100 33
34 34
104 34
553 34
35 35
104 35
710 35
36
711 36
37 37
102 37
38 38
39 38
98 38
412 38
39 39
99 39
40 40
41 40
43 40
45 40
41 41
42 41
44 41
42 42
43 43
146 43
44 44
486 44
45 45
49 45
46
48 46
47 47
48 47
48 48
54 48
506 48
49 49
50 49
53 49
50 50
51 50
52 50
51 51
52 52
125 52
53 53
54 53
55 53
54 54
425 54
445 54
447 54
55
56 56
63 56
57 57
66 57
58 58
70 58
59 59
67 59
60 60
68 60
61
130 61
62 62
129 62
63 63
64 63
65 63
64 64
71 64
131 64
226 64
65 65
1095 65
66 66
67 66
68 66
74 66
183 66
226 66
67 67
68 67
69 67
68 68
74 68
90 68
201 68
69 69
70 69
70 70
182 70
196 70
1063 70
1065 70
1074 70
71 71
72 71
72 72
73 72
121 72
73 73
74 74
75 74
76 74
78 74
80 74
119 74
75 75
204 75
810 75
918 75
76 76
77 76
78 76
127 76
77 77
1050 77
78 78
79 78
452 78
79 79
416 79
417 79
454 79
80 80
81 80
447 80
452 80
81 81
448 81
450 81
464 81
82 82
94 82
83 83
94 83
84 84
95 84
85 85
87 85
126 85
86 86
87 86
241 86
251 86
253 86
267 86
269 86
283 86
291 86
293 86
294 86
302 86
315 86
87 87
88 87
88 88
89 89
105 89
115 89
90 90
91 90
91 91
92 91
108 91
115 91
116 91
92 92
93 92
93 93
94 93
252 93
264 93
271 93
288 93
292 93
293 93
294 93
322 93
323 93
324 93
325 93
326 93
94 94
96 94
264 94
318 94
325 94
95 95
97 95
262 95
268 95
300 95
96 96
145 96
704 96
705 96
97 97
268 97
98 98
99 99
413 99
100 100
725 100
732 100
101 101
102 101
103 101
102 102
103 102
103 103
478 103
104 104
105 105
106 105
109 105
106 106
107 107
108 107
108 108
110 108
109 109
1029 109
110 110
111 110
328 110
367 110
370 110
111 111
367 111
368 111
701 111
112 112
113 112
370 112
686 112
113 113
114 113
115 113
690 113
114 114
1009 114
115 115
116 116
117 116
126 116
117 117
118 118
119 118
119 119
123 119
120 120
121 120
121 121
122 121
504 121
122 122
123 122
124 122
123 123
125 123
124 124
125 124
127 124
125 125
126 125
129 125
546 125
126 126
129 126
127 127
128 127
128 128
129 129
130 130
133 130
173 130
213 130
131 131
132 131
133 131
136 131
132 132
144 132
742 132
133 133
134 133
134 134
135 135
136 135
139 135
740 135
136 136
141 136
137 137
139 137
141 137
761 137
138 138
141 138
877 138
882 138
139 139
140 139
140 140
829 140
830 140
141 141
142 142
258 142
366 142
143 143
144 143
743 143
745 143
826 143
144 144
827 144
145 145
318 145
703 145
146 146
147 146
147 147
148 147
148
149 149
166 149
150 150
173 150
151 151
175 151
152 152
180 152
153 153
183 153
154 154
207 154
155 155
198 155
156 156
213 156
157 157
219 157
158 158
226 158
159 159
182 159
205 159
160 160
172 160
233 160
161 161
222 161
743 161
162 162
163 162
169 162
209 162
223 162
232 162
163 163
186 163
201 163
227 163
164 164
166 164
165 165
166 165
167 165
175 165
194 165
166 166
192 166
201 166
218 166
167 167
175 167
168 168
180 168
209 168
169 169
187 169
170 170
188 170
194 170
171 171
178 171
217 171
172 172
173 172
222 172
755 172
173 173
184 173
174 174
211 174
216 174
175 175
179 175
176 176
177 176
178 176
207 176
177 177
207 177
178 178
214 178
217 178
179 179
203 179
180 180
209 180
181 181
183 181
182 182
183 182
205 182
221 182
183 183
184 183
201 183
226 183
184 184
193 184
213 184
185 185
187 185
186 186
187 186
218 186
187 187
188 187
206 187
209 187
188 188
189 189
211 189
216 189
190 190
199 190
191 191
195 191
197 191
198 191
211 191
192 192
199 192
218 192
220 192
193 193
198 193
199 193
208 193
194 194
216 194
195 195
211 195
196 196
197 197
212 197
198 198
199 199
200 200
201 200
202 200
201 201
218 201
202 202
203 202
203 203
204 204
205 205
221 205
206 206
216 206
207 207
208 207
224 207
208 208
209 209
210 210
215 210
217 210
218 210
211 211
212 211
212 212
213 213
504 213
214 214
217 214
215 215
216 216
218 216
217 217
218 218
219 219
220 219
230 219
220 220
221 221
222 221
225 221
222 222
225 222
233 222
743 222
223 223
232 223
224 224
1026 224
225 225
226 226
227 227
228 227
228 228
229 228
231 228
232 228
229 229
230 230
231 231
232 231
232 232
233 233
234 234
236 234
307 234
235 235
236 235
243 235
270 235
272 235
298 235
299 235
236 236
286 236
237 237
261 237
287 237
309 237
366 237
702 237
238 238
239 238
270 238
239 239
270 239
281 239
240 240
259 240
241 241
242 241
246 241
253 241
257 241
266 241
275 241
279 241
289 241
291 241
292 241
293 241
294 241
299 241
310 241
321 241
327 241
242 242
244 242
245 242
243 243
244 244
272 244
245 245
298 245
246 246
310 246
247 247
248 247
255 247
248 248
255 248
249 249
282 249
250 250
257 250
263 250
289 250
317 250
251 251
267 251
252 252
310 252
313 252
253 253
254 254
255 254
285 254
255 255
258 255
260 255
263 255
256
290 256
317 256
321 256
257 257
258 258
261 258
327 258
259 259
278 259
260 260
289 260
261 261
262 262
268 262
276 262
314 262
263 263
264 264
311 264
265 265
276 265
300 265
266 266
307 266
267 267
282 267
284 267
302 267
268 268
270 268
301 268
269 269
284 269
270 270
275 270
279 270
280 270
318 270
320 270
271 271
272 272
273 273
274 273
303 273
315 273
274 274
312 274
275 275
276 276
277 277
285 277
289 277
278 278
309 278
279 279
280 280
281 281
282 282
283 283
292 283
284 284
285 285
286 286
287 287
288 288
291 288
289 289
290 290
291 291
292 292
293 293
294 294
295 295
298 295
296 296
297 296
297 297
299 297
298 298
299 299
300 300
696 300
301 301
314 301
302 302
303 303
312 303
304 304
305 304
315 304
329 304
305 305
315 305
306 306
322 306
307 307
308 308
323 308
309 309
310 310
311 311
326 311
312 312
315 312
313 313
314 314
315 315
316 315
319 315
323 315
316 316
322 316
317 317
318 318
704 318
319 319
329 319
320 320
321 321
322 322
323 323
324 324
325 324
325 325
326 326
327 327
328
329 329
330 330
335 330
331 331
336 331
332 332
337 332
333 333
350 333
334 334
350 334
335 335
337 335
336 336
337 336
337 337
338 337
339 337
340 337
338 338
340 338
339 339
340 339
340 340
341 340
342 340
341 341
342 341
342 342
343 342
344 342
345 342
370 342
343 343
346 343
344 344
346 344
345 345
346 345
346 346
347 346
349 346
367 346
347 347
348 347
348 348
349 348
349 349
350 349
350 350
351 351
366 351
352 352
353 352
408 352
409 352
353 353
363 353
382 353
354 354
382 354
383 354
355 355
375 355
356 356
383 356
398 356
357 357
394 357
395 357
358 358
479 358
359 359
474 359
360 360
715 360
361 361
479 361
480 361
362 362
403 362
714 362
363 363
364 363
365 363
373 363
374 363
388 363
395 363
407 363
474 363
364 364
365 365
366 366
699 366
367 367
368 367
372 367
368 368
369 369
371 369
370 370
371 371
372 371
372 372
373 373
374 374
375 375
376 375
377 375
378 375
379 375
380 375
381 375
389 375
404 375
376 376
377 377
378 378
379 379
380 380
381 381
382 382
383 383
384 383
385 383
386 383
387 383
392 383
384 384
385 385
386 386
387 387
388 388
389 388
390 388
391 388
395 388
401 388
405 388
389 389
390 390
391 391
392 392
395 392
393 393
474 393
479 393
394 394
395 394
395 395
398 395
399 395
405 395
406 395
407 395
474 395
396 396
406 396
716 396
717 396
397 397
716 397
717 397
398 398
399 399
400
473 400
401 401
402 401
714 401
402 402
403 403
404 404
409 404
405 405
406 406
479 406
483 406
716 406
717 406
407 407
408 408
409 409
410 410
411 410
412 410
731 410
411 411
476 411
477 411
486 411
412 412
413 412
478 412
709 412
724 412
413 413
414 414
431 414
433 414
415 415
432 415
433 415
416 416
433 416
462 416
417 417
433 417
462 417
418 418
419 418
545 418
419 419
420 420
421 420
422 420
470 420
421 421
422 422
423 423
425 423
516 423
424 424
466 424
516 424
425 425
426 425
427 425
466 425
426 426
437 426
519 426
427 427
428 428
429 428
430 428
431 428
432 428
429
430 430
431 431
432 432
433 433
434 433
510 433
564 433
434 434
435 435
510 435
436 436
534 436
437 437
438 437
439 437
441 437
458 437
438 438
439 439
440 439
460 439
440 440
441 441
442 441
442 442
443 443
444 443
470 443
506 443
516 443
444 444
458 444
445 445
446 445
447 445
446 446
447 447
449 447
537 447
448 448
464 448
449 449
450 449
450 450
451 450
451 451
452 452
453 452
453 453
454 454
455 454
455 455
456 456
457 456
564 456
457 457
458 458
459 458
460 458
459 459
460 460
461 460
461 461
462 462
463 462
463 463
464 464
465 464
545 464
465 465
968 465
466 466
467 466
467 467
468
544 468
469
543 469
470 470
471 471
472 471
478 471
481 471
492 471
707 471
708 471
472 472
473 473
474 473
474 474
475 475
710 475
724 475
476 476
482 476
477 477
478 477
478 478
708 478
709 478
479 479
480 479
714 479
726 479
480 480
481 481
484 481
485 481
491 481
492 481
733 481
482 482
483 482
483 483
484 484
709 484
733 484
485 485
491 485
486 486
731 486
487 487
491 487
488 488
491 488
489 489
492 489
490 490
492 490
491 491
492 491
734 491
492 492
707 492
493 493
707 493
494 494
505 494
495 495
513 495
496 496
521 496
497 497
522 497
498 498
523 498
499 499
500 499
819 499
914 499
500 500
501 501
502 501
505 501
507 501
521 501
531 501
536 501
502 502
607 502
609 502
613 502
937 502
503 503
507 503
513 503
553 503
504 504
505 504
505 505
521 505
526 505
578 505
506 506
507 507
508 507
509 507
515 507
521 507
522 507
547 507
508 508
619 508
639 508
781 508
509 509
511 509
515 509
520 509
534 509
510 510
520 510
511 511
914 511
926 511
512 512
520 512
513 513
514 513
540 513
514 514
790 514
795 514
515 515
516 515
517 515
518 515
536 515
547 515
516 516
517 517
993 517
995 517
518 518
519 519
957 519
967 519
520 520
521 521
522 521
522 522
523 522
523 523
582 523
770 523
779 523
802 523
524 524
533 524
985 524
1001 524
525 525
568 525
526 526
527 526
531 526
527 527
921 527
933 527
1068 527
1073 527
1074 527
1124 527
528 528
529 528
809 528
819 528
529 529
530 530
578 530
583 530
780 530
797 530
803 530
531 531
532 531
534 531
532 532
554 532
647 532
652 532
663 532
668 532
672 532
673 532
677 532
908 532
912 532
918 532
1047 532
533 533
534 534
535 534
536 534
542 534
535 535
885 535
536 536
537 536
538 536
539 536
542 536
537 537
538 538
809 538
914 538
948 538
953 538
964 538
539 539
540 540
800 540
541 541
543 541
542 542
543 542
545 542
546 542
543 543
544 543
544 544
545 545
546 546
547 547
548 548
551 548
549 549
563 549
550 550
566 550
551 551
552 551
555 551
566 551
552 552
558 552
560 552
553 553
561 553
710 553
554 554
574 554
909 554
555 555
556 555
557 555
564 555
566 555
556 556
559 556
579 556
621 556
903 556
557 557
558 557
558 558
979 558
980 558
986 558
989 558
991 558
998 558
1000 558
559 559
579 559
560 560
980 560
561 561
562 561
566 561
562 562
563 562
563 563
567 563
564 564
565 565
567 565
566 566
567 566
567 567
568 568
773 568
795 568
569 569
785 569
570 570
579 570
571 571
776 571
572 572
783 572
573 573
796 573
574 574
575
581 575
576 576
582 576
784 576
577 577
786 577
802 577
1090 577
578 578
780 578
579 579
580 579
782 579
783 579
895 579
927 579
580 580
587 580
581 581
776 581
796 581
797 581
799 581
582 582
583 583
780 583
803 583
584 584
585 584
1068 584
585 585
607 585
613 585
659 585
586 586
597 586
587 587
598 587
614 587
588 588
595 588
597 588
589 589
591 589
590 590
595 590
616 590
591 591
601 591
592 592
611 592
593 593
604 593
594 594
600 594
595 595
596 596
597 596
603 596
607 596
597 597
598 598
599 599
1105 599
600 600
601 600
782 600
601 601
602 601
633 601
602 602
640 602
603 603
604 603
605 603
1092 603
604 604
612 604
615 604
605 605
607 605
606 606
610 606
607 607
608 608
610 608
1101 608
609 609
1068 609
610 610
611 611
615 611
612 612
613 613
614 614
615 615
616 616
617 617
1123 617
618 618
629 618
639 618
619 619
620 619
620 620
632 620
621 621
624 621
1061 621
622 622
625 622
641 622
623 623
639 623
642 623
624 624
638 624
625 625
635 625
626 626
634 626
635 626
627 627
639 627
628 628
631 628
642 628
629 629
637 629
643 629
630 630
631 630
635 630
796 630
631 631
632 632
634 632
641 632
633 633
634 634
635 635
636 635
636 636
1094 636
637
638 638
639 639
640 640
641 641
642 642
643 643
644 644
652 644
662 644
645 645
650 645
1060 645
646 646
664 646
1051 646
647 647
1041 647
648 648
678 648
1042 648
649 649
672 649
1055 649
650 650
653 650
651 651
670 651
1045 651
652 652
653 652
663 652
666 652
668 652
676 652
1054 652
653 653
1048 653
654 654
677 654
1057 654
655 655
657 655
665 655
656 656
678 656
657 657
1055 657
658 658
671 658
672 658
659 659
677 659
660 660
1050 660
1058 660
661
677 661
662 662
672 662
663 663
664 664
1056 664
665 665
682 665
666 666
681 666
667 667
1051 667
668 668
669
679 669
1058 669
670 670
1121 670
671 671
679 671
672 672
673 672
682 672
1049 672
1050 672
1052 672
1058 672
1121 672
673 673
674 674
675 674
1046 674
675 675
1050 675
676 676
1043 676
677 677
678 677
1041 677
1059 677
678 678
679 679
680 680
1047 680
1057 680
681 681
1053 681
682 682
683 683
689 683
684 684
689 684
685 685
691 685
686 686
687 686
688 686
687 687
688 688
689 688
694 688
699 688
700 688
702 688
689 689
693 689
690 690
691 690
694 690
697 690
691 691
692 691
695 691
692
693 693
695 693
694 694
695 694
695 695
696 696
697 697
698 697
698 698
699 699
700 699
700 700
701
702 702
703
704 704
705
706 706
707 706
707 707
726 707
708 708
709 708
709 709
710 710
711 711
724 711
734 711
712 712
714 712
713 713
714 713
714 714
715 714
734 714
715 715
716 716
717 716
717 717
718 718
724 718
719 719
724 719
720 720
724 720
721 721
724 721
722 722
724 722
723 723
724 723
724 724
725 724
734 724
725 725
726 726
727 727
728 727
731 727
728 728
731 728
729 729
730 729
731 729
730 730
731 730
731 731
732 732
733 733
734 734
735 735
743 735
736 736
742 736
737 737
743 737
738 738
742 738
739 739
744 739
740 740
741 740
742 740
744 740
741 741
749 741
759 741
742 742
743 742
743 743
746 743
744 744
756 744
745 745
746 745
746 746
747 747
748 747
758 747
748 748
757 748
749 749
753 749
750 750
751 750
759 750
751 751
752 752
757 752
762 752
753 753
754 754
757 754
765 754
755 755
764 755
756 756
757 756
757 757
758 758
759 759
760 760
761 760
761 761
766 761
767 761
762 762
763 762
763 763
764
765 765
766 766
768 766
767
768 768
769 768
772 768
769 769
770 770
823 770
771 771
772 771
772 772
773 773
774 773
795 773
801 773
802 773
774 774
775 775
776 775
781 775
776 776
781 776
796 776
797 776
1127 776
777 777
793 777
795 777
800 777
778 778
779 778
779 779
780 779
787 779
780 780
797 780
949 780
781 781
782 782
783 782
783 783
784 784
802 784
785 785
786 785
788 785
796 785
797 785
802 785
786 786
1128 786
787 787
949 787
788 788
789 788
796 788
1132 788
789 789
1094 789
790 790
791 790
795 790
791 791
792 792
799 792
1110 792
793 793
794 793
825 793
794 794
795 794
800 794
795 795
796 796
799 796
797 797
798 797
803 797
805 797
1119 797
798 798
1114 798
799 799
800 800
801 801
802 802
1137 802
803 803
804 803
804 804
805 805
1138 805
806 806
821 806
807 807
887 807
808 808
897 808
809 809
920 809
810 810
811 810
918 810
811 811
812
909 812
813 813
885 813
940 813
1122 813
814 814
815 814
909 814
918 814
815 815
816 816
817 816
927 816
817 817
818 817
907 817
818 818
819 819
820 819
820 820
821 821
888 821
897 821
921 821
822 822
880 822
885 822
935 822
823
824
825 824
825
826
827
828 828
837 828
838 828
874 828
829 829
833 829
839 829
830 830
833 830
840 830
831 831
841 831
869 831
832 832
842 832
869 832
833 833
843 833
834 834
844 834
874 834
835 835
845 835
862 835
836 836
846 836
869 836
837 837
838 838
859 838
860 838
839 839
840 840
841 841
842 842
843 843
844 844
845 845
846 846
847 847
848 847
848 848
873 848
849 849
854 849
863 849
864 849
850 850
855 850
873 850
851 851
856 851
858 851
852 852
857 852
869 852
853 853
876 853
854 854
855 855
856 856
857 857
858 858
873 858
859 859
860 860
861 860
861 861
862 862
863 862
863 863
869 863
864 864
865 864
869 864
865 865
866 866
869 866
877 866
867 867
878 867
868 868
869 868
871 868
877 868
869 869
870 869
870 870
871 870
877 870
871 871
872 872
882 872
873 873
882 873
874 874
878 874
875 875
876 875
882 875
876 876
877 877
878 877
883 877
878 878
879 879
882 879
880 880
881 881
882 881
882 882
883 883
884 884
937 884
1123 884
885 885
914 885
918 885
886 886
895 886
927 886
937 886
887 887
896 887
897 887
888 888
924 888
889 889
917 889
890 890
891 890
908 890
917 890
891 891
892 892
893 892
899 892
927 892
893 893
894 894
921 894
936 894
1126 894
895 895
1125 895
896 896
897 896
897 897
913 897
917 897
944 897
898 898
914 898
926 898
899 899
900 899
908 899
900 900
901 901
913 901
1129 901
902
906 902
903 903
987 903
904 904
905 904
939 904
944 904
905 905
906 906
922 906
939 906
907 907
923 907
908 908
912 908
917 908
927 908
909 909
910 909
910 910
911 911
912 911
912 912
913 913
914 914
935 914
938 914
963 914
915 915
926 915
916 916
991 916
917 917
918 917
930 917
918 918
919 918
1130 918
919 919
940 919
920 920
921 921
923 921
924 921
927 921
933 921
937 921
922 922
930 922
1133 922
923 923
924 924
925 924
925 925
926 926
927 927
928 927
937 927
928 928
929 928
937 928
929 929
930 930
931 930
931 931
932 932
949 932
933 933
934 933
942 933
934 934
935 935
947 935
936 936
937 936
1134 936
937 937
938 938
939 939
940 940
954 940
941
954 941
942 942
943 943
944 943
944 944
945 945
961 945
946 946
965 946
947 947
948 948
952 948
955 948
957 948
958 948
964 948
949 949
950 950
951 950
955 950
956 950
951 951
965 951
969 951
975 951
952 952
960 952
953 953
955 953
954 954
959 954
955 955
956 956
957 957
958 957
967 957
973 957
958 958
959 959
960 960
973 960
961 961
962 961
963 961
968 961
962 962
966 962
963 963
972 963
964 964
965 965
968 965
969 965
966 966
971 966
967 967
968 968
969 969
970 969
970 970
971 971
972 971
972 972
973 973
974 974
983 974
975 975
976 976
977 976
989 976
1001 976
977 977
978 978
989 978
979 979
983 979
980 980
981 981
982 981
984 981
998 981
982 982
983 983
986 983
984 984
985 985
987 985
989 985
986 986
987 987
999 987
988 988
993 988
995 988
989 989
990 989
990 990
991 991
992 991
992 992
993 993
994 993
994 994
995 995
997 995
998 995
996 996
997 996
997 997
998 997
998 998
999 999
1000 1000
1001 1001
1002 1002
1027 1002
1003 1003
1035 1003
1004 1004
1032 1004
1005 1005
1039 1005
1006 1006
1007 1006
1013 1006
1019 1006
1021 1006
1030 1006
1035 1006
1007 1007
1008 1008
1023 1008
1009 1009
1010 1009
1018 1009
1019 1009
1021 1009
1022 1009
1040 1009
1010 1010
1011 1011
1040 1011
1012 1012
1040 1012
1013 1013
1023 1013
1029 1013
1030 1013
1037 1013
1038 1013
1039 1013
1014 1014
1039 1014
1015 1015
1029 1015
1016 1016
1024 1016
1034 1016
1017 1017
1029 1017
1018 1018
1019 1019
1033 1019
1020 1020
1021 1020
1021 1021
1022 1022
1023 1023
1024 1023
1025 1023
1027 1023
1024 1024
1034 1024
1025 1025
1028 1025
1026 1026
1027 1026
1027 1027
1028 1027
1035 1027
1028 1028
1029 1029
1030 1030
1031 1030
1031 1031
1032 1032
1034 1032
1036 1032
1033 1033
1034 1034
1035 1035
1036 1035
1036 1036
1037 1037
1038 1038
1039 1039
1040 1040
1041 1041
1042 1042
1043 1043
1050 1043
1044 1044
1050 1044
1053 1044
1045 1045
1047 1045
1046 1046
1058 1046
1047 1047
1048 1048
1049 1049
1054 1049
1050 1050
1051 1050
1052 1050
1051 1051
1056 1051
1052 1052
1053 1053
1054 1054
1055 1055
1056 1055
1058 1055
1056 1056
1057 1057
1058 1058
1059 1059
1061 1059
1060 1060
1061 1061
1062 1062
1072 1062
1085 1062
1063 1063
1074 1063
1064 1064
1075 1064
1087 1064
1065 1065
1077 1065
1080 1065
1066 1066
1068 1066
1067 1067
1071 1067
1068 1068
1069 1068
1092 1068
1069 1069
1086 1069
1070 1070
1077 1070
1113 1070
1071 1071
1088 1071
1072 1072
1075 1072
1073 1073
1074 1073
1074 1074
1075 1074
1081 1074
1086 1074
1075 1075
1082 1075
1076 1076
1077 1076
1077 1077
1078 1077
1080 1077
1088 1077
1095 1077
1078 1078
1084 1078
1085 1078
1079 1079
1117 1079
1080 1080
1081 1081
1082 1082
1083
1087 1083
1084 1084
1085 1085
1086 1086
1087 1087
1088 1088
1089 1089
1106 1089
1112 1089
1090 1090
1091 1090
1091 1091
1093 1091
1108 1091
1092 1092
1093 1093
1098 1093
1094 1094
1095 1095
1096 1095
1100 1095
1105 1095
1113 1095
1096 1096
1103 1096
1107 1096
1112 1096
1097 1097
1100 1097
1098 1098
1099 1098
1099 1099
1100 1100
1101 1100
1101 1101
1120 1101
1102 1102
1112 1102
1103 1103
1104 1104
1118 1104
1119 1104
1105 1105
1106 1106
1109 1106
1107 1107
1108 1108
1109 1109
1110 1110
1114 1110
1111 1111
1119 1111
1112 1112
1113 1113
1114 1114
1115 1114
1116 1114
1115 1115
1116 1116
1117 1117
1120 1117
1118 1118
1119 1119
1120 1120
1121 1121
1122 1122
1136 1122
1123 1123
1124 1124
1135 1124
1125 1125
1126
1127 1127
1128
1129 1129
1135 1129
1130 1130
1131 1131
1136 1131
1132 1132
1133
1134
1135 1135
1136 1136
1137
1138 1138
