%%MatrixMarket matrix coordinate pattern symmetric
%%GraphBLAS type double
50 50 283
1 2
1 3
1 4
1 5
1 6
1 20
1 19
1 22
1 29
1 41
1 11
2 7
2 30
2 37
2 28
2 13
2 38
2 43
2 16
2 33
2 5
2 18
2 24
2 12
2 42
2 35
2 39
3 37
3 28
3 19
3 42
3 29
3 20
3 12
3 13
3 47
3 17
3 6
3 4
3 46
3 14
4 17
4 40
4 5
4 19
4 6
4 22
4 41
4 10
4 27
4 49
4 29
4 32
5 20
5 29
5 11
5 32
5 15
5 19
6 17
6 8
6 19
6 22
6 50
6 13
6 32
6 40
6 41
6 29
7 8
7 9
7 10
7 11
7 12
7 37
7 33
7 15
7 38
8 9
8 38
8 14
8 42
8 30
8 13
8 15
8 28
8 44
8 21
8 24
8 43
9 13
9 14
9 15
9 16
9 31
9 33
9 38
9 43
9 42
9 11
10 28
10 33
10 27
10 23
10 37
10 39
10 42
10 14
11 17
11 20
11 40
11 21
11 32
12 16
12 31
12 37
12 13
12 33
12 24
12 27
12 30
12 36
12 25
12 43
13 30
13 27
13 18
13 39
13 42
13 40
13 14
13 22
13 15
13 24
14 16
14 44
14 22
14 18
14 25
14 45
14 50
14 34
14 32
14 36
14 49
14 43
14 23
14 28
15 30
15 23
15 42
16 27
16 28
16 44
16 24
16 42
17 18
17 19
17 20
17 21
17 22
17 23
17 33
18 28
18 49
18 44
18 47
18 34
18 48
19 46
19 34
19 21
19 40
19 32
19 41
19 29
19 47
19 38
20 21
20 29
20 22
21 40
21 26
21 27
21 41
22 48
22 34
22 32
22 49
22 39
23 24
23 25
23 26
23 44
23 47
23 35
24 37
24 33
24 39
24 47
24 42
24 27
24 28
24 35
24 48
25 33
25 44
25 47
25 26
25 50
25 34
25 36
25 46
26 45
26 47
26 36
26 50
26 41
26 35
27 33
27 43
27 30
27 28
27 39
28 42
28 38
29 30
29 32
29 45
30 31
30 32
30 33
30 43
30 42
30 39
31 34
31 35
31 36
31 47
31 50
33 37
33 43
33 38
33 39
33 42
33 40
34 44
34 50
34 47
34 48
34 35
35 47
35 49
35 46
35 36
35 45
35 48
35 39
36 48
36 47
36 49
37 38
37 39
37 42
38 39
38 42
39 43
40 41
42 44
42 50
42 43
44 45
44 46
44 50
44 48
45 46
45 47
46 47
46 48
47 49
47 48
47 50
48 50
1 1
2 2
3 3
4 4
5 5
6 6
7 7
8 8
9 9
10 10
11 11
12 12
13 13
14 14
15 15
16 16
17 17
18 18
19 19
20 20
21 21
22 22
23 23
24 24
25 25
26 26
27 27
28 28
29 29
30 30
31 31
32 32
33 33
34 34
35 35
36 36
37 37
38 38
39 39
40 40
41 41
42 42
43 43
44 44
45 45
46 46
47 47
48 48
49 49
50 50