%%MatrixMarket matrix coordinate pattern symmetric
%%GraphBLAS type double_t
2000 2000 19990
3 1
73 1
429 1
445 1
501 1
666 1
815 1
896 1
898 1
1271 1
1340 1
1477 1
1586 1
1642 1
1678 1
1763 1
1768 1
1899 1
1907 1
138 2
267 2
480 2
516 2
653 2
848 2
866 2
976 2
1066 2
1114 2
1132 2
1355 2
1443 2
1571 2
1635 2
1661 2
1768 2
1901 2
1927 2
122 3
130 3
170 3
201 3
212 3
230 3
344 3
352 3
482 3
523 3
533 3
539 3
1006 3
1024 3
1058 3
1138 3
1158 3
1412 3
1444 3
1461 3
1678 3
1794 3
1811 3
1969 3
45 4
102 4
208 4
246 4
335 4
371 4
441 4
466 4
495 4
541 4
556 4
577 4
817 4
1021 4
1145 4
1244 4
1297 4
1346 4
1471 4
1542 4
1682 4
1688 4
1790 4
1880 4
1939 4
78 5
166 5
423 5
473 5
653 5
702 5
730 5
813 5
849 5
895 5
1091 5
1132 5
1318 5
1396 5
1881 5
1940 5
1996 5
78 6
81 6
99 6
132 6
192 6
394 6
514 6
570 6
630 6
901 6
953 6
988 6
998 6
1174 6
1208 6
1329 6
1463 6
1537 6
1719 6
1745 6
22 7
72 7
78 7
163 7
373 7
390 7
460 7
556 7
562 7
655 7
746 7
1009 7
1292 7
1395 7
1476 7
1574 7
1621 7
1711 7
1738 7
1937 7
55 8
164 8
287 8
350 8
388 8
454 8
490 8
524 8
531 8
567 8
629 8
1344 8
1568 8
1597 8
1754 8
1802 8
66 9
210 9
221 9
250 9
368 9
399 9
662 9
853 9
943 9
1008 9
1131 9
1218 9
1299 9
1335 9
1486 9
1586 9
1786 9
1799 9
1847 9
1904 9
1949 9
34 10
223 10
253 10
371 10
468 10
570 10
660 10
804 10
823 10
839 10
867 10
913 10
1021 10
1030 10
1068 10
1234 10
1333 10
1418 10
1514 10
1578 10
1591 10
1596 10
1747 10
1959 10
157 11
319 11
327 11
399 11
558 11
560 11
653 11
723 11
1040 11
1050 11
1239 11
1282 11
1632 11
1830 11
1868 11
30 12
172 12
191 12
212 12
574 12
715 12
738 12
859 12
903 12
945 12
1090 12
1225 12
1352 12
1474 12
1494 12
1629 12
1694 12
1735 12
1747 12
1882 12
14 13
63 13
122 13
189 13
272 13
349 13
352 13
368 13
423 13
468 13
494 13
527 13
615 13
731 13
767 13
770 13
772 13
845 13
983 13
1010 13
1098 13
1148 13
1201 13
1237 13
1428 13
1436 13
1444 13
1478 13
1577 13
1622 13
1623 13
1942 13
1978 13
45 14
179 14
268 14
369 14
498 14
534 14
544 14
627 14
654 14
844 14
1011 14
1060 14
1172 14
1245 14
1277 14
1299 14
1532 14
1584 14
1593 14
1804 14
1957 14
17 15
57 15
65 15
133 15
160 15
400 15
411 15
613 15
624 15
663 15
674 15
739 15
794 15
992 15
1071 15
1200 15
1236 15
1239 15
1313 15
1353 15
1501 15
1508 15
1537 15
1652 15
1714 15
1807 15
1912 15
1917 15
178 16
297 16
605 16
908 16
1049 16
1078 16
1168 16
1319 16
1406 16
1618 16
1696 16
1737 16
1810 16
239 17
255 17
262 17
265 17
400 17
470 17
499 17
518 17
566 17
572 17
605 17
643 17
679 17
769 17
962 17
1019 17
1059 17
1125 17
1161 17
1228 17
1314 17
1342 17
1519 17
1604 17
1682 17
1824 17
1969 17
20 18
132 18
192 18
198 18
417 18
453 18
479 18
514 18
557 18
712 18
772 18
886 18
1061 18
1084 18
1145 18
1274 18
1374 18
1433 18
1453 18
1472 18
1559 18
1597 18
1712 18
1787 18
1829 18
1852 18
1860 18
1913 18
1916 18
1949 18
1958 18
232 19
261 19
319 19
374 19
468 19
557 19
625 19
644 19
693 19
898 19
923 19
1018 19
1164 19
1259 19
1351 19
1370 19
1605 19
1697 19
1713 19
1769 19
1798 19
1814 19
1860 19
1884 19
32 20
105 20
289 20
412 20
604 20
663 20
926 20
995 20
1143 20
1162 20
1257 20
1414 20
1696 20
1735 20
1818 20
65 21
114 21
156 21
281 21
305 21
502 21
567 21
571 21
572 21
621 21
674 21
763 21
836 21
843 21
870 21
909 21
914 21
1023 21
1042 21
1347 21
1394 21
1652 21
1697 21
1922 21
1979 21
174 22
240 22
297 22
461 22
472 22
477 22
480 22
551 22
597 22
688 22
794 22
944 22
946 22
1045 22
1241 22
1292 22
1429 22
1433 22
1498 22
1576 22
1608 22
1736 22
1767 22
1915 22
1967 22
1999 22
33 23
263 23
481 23
543 23
773 23
798 23
917 23
1042 23
1052 23
1057 23
1138 23
1276 23
1321 23
1342 23
1369 23
1433 23
1564 23
1677 23
1894 23
176 24
353 24
428 24
482 24
617 24
623 24
630 24
663 24
701 24
730 24
789 24
819 24
960 24
1074 24
1247 24
1262 24
1283 24
1311 24
1604 24
1900 24
125 25
129 25
298 25
415 25
820 25
1152 25
1268 25
1278 25
1350 25
1356 25
1359 25
1406 25
1462 25
1685 25
1907 25
64 26
100 26
196 26
299 26
372 26
703 26
840 26
847 26
920 26
934 26
1048 26
1112 26
1199 26
1222 26
1351 26
1438 26
1593 26
1658 26
1743 26
1778 26
1958 26
122 27
343 27
427 27
556 27
620 27
713 27
792 27
797 27
868 27
914 27
919 27
995 27
1005 27
1024 27
1185 27
1398 27
1417 27
1474 27
1599 27
1790 27
2000 27
363 28
504 28
641 28
898 28
1011 28
1019 28
1143 28
1163 28
1238 28
1394 28
1414 28
1545 28
1701 28
1814 28
38 29
51 29
72 29
165 29
221 29
405 29
451 29
462 29
463 29
546 29
570 29
586 29
837 29
1109 29
1121 29
1244 29
1272 29
1313 29
1420 29
1434 29
1627 29
494 30
496 30
631 30
726 30
787 30
1092 30
1338 30
1438 30
1574 30
1616 30
1667 30
1838 30
1858 30
1884 30
1981 30
118 31
128 31
195 31
321 31
346 31
378 31
590 31
617 31
628 31
648 31
989 31
999 31
1016 31
1061 31
1067 31
1098 31
1149 31
1175 31
1268 31
1532 31
1543 31
1607 31
1845 31
1923 31
83 32
314 32
342 32
473 32
491 32
504 32
506 32
625 32
634 32
695 32
706 32
748 32
1062 32
1169 32
1194 32
1434 32
1498 32
1632 32
1788 32
1880 32
1938 32
1999 32
74 33
313 33
458 33
501 33
594 33
657 33
691 33
856 33
949 33
1007 33
1174 33
1403 33
1441 33
1479 33
1819 33
1874 33
155 34
166 34
259 34
294 34
699 34
802 34
986 34
1036 34
1090 34
1121 34
1364 34
1515 34
1548 34
1605 34
1654 34
1861 34
99 35
312 35
513 35
728 35
772 35
781 35
995 35
1048 35
1097 35
1247 35
1286 35
1307 35
1459 35
1564 35
1610 35
1889 35
1962 35
1997 35
110 36
137 36
244 36
354 36
441 36
541 36
567 36
593 36
756 36
769 36
824 36
943 36
957 36
1026 36
1084 36
1392 36
1532 36
1652 36
1721 36
1730 36
1747 36
1853 36
96 37
147 37
309 37
648 37
766 37
783 37
796 37
835 37
895 37
1300 37
1438 37
1546 37
1661 37
1753 37
1913 37
1921 37
56 38
58 38
376 38
419 38
495 38
801 38
811 38
1000 38
1012 38
1127 38
1188 38
1476 38
1565 38
1634 38
1810 38
2000 38
69 39
94 39
144 39
188 39
207 39
380 39
596 39
629 39
678 39
696 39
804 39
841 39
892 39
958 39
1054 39
1158 39
1183 39
1271 39
1408 39
1562 39
1856 39
56 40
72 40
190 40
217 40
227 40
379 40
580 40
611 40
645 40
732 40
779 40
1196 40
1258 40
1378 40
1497 40
1614 40
1646 40
1664 40
1680 40
1712 40
1802 40
1826 40
191 41
310 41
425 41
501 41
706 41
707 41
803 41
1019 41
1195 41
1241 41
1327 41
1803 41
1857 41
1997 41
210 42
414 42
446 42
460 42
579 42
658 42
810 42
894 42
1017 42
1143 42
1263 42
1302 42
1320 42
1343 42
1543 42
1764 42
1799 42
159 43
202 43
358 43
439 43
578 43
736 43
870 43
934 43
1006 43
1257 43
1300 43
1537 43
1543 43
1780 43
1836 43
1941 43
1973 43
1977 43
158 44
281 44
452 44
502 44
540 44
548 44
690 44
838 44
845 44
988 44
991 44
1029 44
1067 44
1130 44
1156 44
1197 44
1223 44
1298 44
1356 44
1396 44
1410 44
1459 44
1463 44
1480 44
1534 44
1648 44
1694 44
1955 44
1987 44
71 45
99 45
219 45
243 45
439 45
589 45
710 45
997 45
1045 45
1264 45
1344 45
1581 45
1605 45
1647 45
1694 45
1701 45
1703 45
1879 45
1900 45
1902 45
119 46
176 46
239 46
560 46
590 46
840 46
1412 46
1426 46
1496 46
1522 46
1558 46
1597 46
1754 46
1762 46
1995 46
377 47
390 47
408 47
421 47
561 47
667 47
686 47
741 47
1091 47
1288 47
1295 47
1335 47
1345 47
1503 47
1591 47
1619 47
1655 47
1841 47
1897 47
1904 47
1962 47
81 48
118 48
184 48
234 48
333 48
367 48
434 48
641 48
656 48
819 48
999 48
1032 48
1145 48
1348 48
1425 48
1432 48
1494 48
1503 48
1532 48
1804 48
1850 48
1996 48
152 49
246 49
381 49
386 49
539 49
630 49
651 49
746 49
929 49
988 49
1180 49
1380 49
1667 49
1693 49
1701 49
1711 49
1878 49
1918 49
1968 49
398 50
437 50
633 50
828 50
849 50
975 50
1038 50
1122 50
1486 50
1520 50
1610 50
1685 50
1852 50
1970 50
53 51
228 51
302 51
390 51
414 51
487 51
564 51
833 51
894 51
1249 51
1329 51
1517 51
1593 51
1660 51
1785 51
1805 51
1860 51
1891 51
1969 51
1985 51
126 52
237 52
293 52
327 52
364 52
400 52
620 52
756 52
818 52
857 52
900 52
1041 52
1129 52
1209 52
1291 52
1311 52
1411 52
1412 52
1447 52
1448 52
1486 52
1521 52
1546 52
1673 52
1857 52
111 53
267 53
305 53
400 53
626 53
802 53
841 53
908 53
936 53
1022 53
1555 53
1633 53
1780 53
1820 53
1853 53
1881 53
183 54
220 54
319 54
346 54
456 54
628 54
724 54
1037 54
1090 54
1131 54
1134 54
1147 54
1266 54
1267 54
1359 54
1372 54
1495 54
1590 54
1786 54
78 55
114 55
143 55
189 55
277 55
307 55
386 55
779 55
1149 55
1331 55
1390 55
1413 55
1421 55
1477 55
1617 55
1647 55
1693 55
1782 55
1792 55
1828 55
1830 55
1887 55
103 56
189 56
209 56
268 56
391 56
555 56
559 56
564 56
854 56
866 56
1181 56
1217 56
1387 56
1569 56
1608 56
1653 56
1689 56
1707 56
1904 56
244 57
269 57
457 57
565 57
691 57
693 57
829 57
909 57
1039 57
1090 57
1249 57
1287 57
1318 57
1832 57
1912 57
1935 57
73 58
96 58
224 58
407 58
685 58
743 58
769 58
995 58
1003 58
1248 58
1576 58
1598 58
1599 58
1625 58
1723 58
60 59
177 59
490 59
491 59
595 59
694 59
722 59
869 59
880 59
923 59
1053 59
1156 59
1369 59
1378 59
1397 59
1542 59
1671 59
1714 59
1878 59
1980 59
199 60
387 60
398 60
415 60
572 60
760 60
904 60
928 60
991 60
1014 60
1034 60
1114 60
1256 60
1317 60
1546 60
1558 60
1780 60
1946 60
1947 60
105 61
140 61
149 61
190 61
194 61
230 61
355 61
377 61
412 61
495 61
552 61
565 61
566 61
612 61
662 61
710 61
745 61
764 61
826 61
979 61
984 61
1090 61
1251 61
1327 61
1553 61
1647 61
1694 61
1717 61
1722 61
1901 61
1993 61
185 62
486 62
504 62
536 62
665 62
673 62
793 62
877 62
1034 62
1167 62
1196 62
1296 62
1341 62
1469 62
1513 62
1535 62
1610 62
1767 62
1830 62
1847 62
1855 62
129 63
187 63
240 63
318 63
384 63
592 63
693 63
895 63
972 63
996 63
1017 63
1025 63
1270 63
1289 63
1380 63
1449 63
1599 63
1694 63
80 64
103 64
170 64
200 64
208 64
296 64
595 64
596 64
644 64
831 64
1010 64
1022 64
1150 64
1271 64
1312 64
1432 64
1541 64
1654 64
1655 64
1703 64
166 65
186 65
455 65
598 65
697 65
787 65
975 65
1007 65
1033 65
1103 65
1256 65
1274 65
1289 65
1305 65
1484 65
1489 65
1688 65
1810 65
189 66
209 66
245 66
281 66
654 66
665 66
728 66
872 66
885 66
956 66
1173 66
1195 66
1437 66
1508 66
1518 66
1547 66
1592 66
1687 66
1691 66
1749 66
192 67
473 67
584 67
754 67
824 67
830 67
1164 67
1186 67
1240 67
1332 67
1357 67
1420 67
1514 67
1586 67
1670 67
1716 67
226 68
379 68
621 68
672 68
679 68
739 68
748 68
749 68
933 68
1047 68
1227 68
1251 68
1453 68
1461 68
1467 68
1524 68
1536 68
1605 68
1668 68
1737 68
1746 68
1753 68
1837 68
98 69
116 69
153 69
214 69
288 69
402 69
419 69
468 69
544 69
547 69
621 69
699 69
712 69
745 69
796 69
807 69
1115 69
1190 69
1245 69
1325 69
1357 69
1407 69
1516 69
1544 69
1614 69
1764 69
1774 69
1775 69
1786 69
1857 69
1897 69
220 70
301 70
303 70
363 70
404 70
416 70
429 70
595 70
621 70
709 70
858 70
974 70
988 70
1130 70
1206 70
1351 70
1398 70
1400 70
1409 70
1445 70
1449 70
1539 70
1574 70
1745 70
1867 70
1884 70
1951 70
1977 70
1979 70
74 71
121 71
162 71
325 71
469 71
516 71
654 71
768 71
777 71
808 71
846 71
1117 71
1205 71
1240 71
1491 71
1553 71
1582 71
1663 71
1669 71
1675 71
1705 71
1712 71
1775 71
1827 71
1915 71
1978 71
93 72
374 72
450 72
475 72
509 72
540 72
553 72
628 72
655 72
751 72
762 72
786 72
809 72
879 72
910 72
964 72
969 72
979 72
1129 72
1167 72
1196 72
1238 72
1338 72
1373 72
1594 72
1691 72
1845 72
1861 72
1929 72
1940 72
1965 72
1993 72
145 73
146 73
167 73
470 73
769 73
876 73
1005 73
1073 73
1253 73
1332 73
1337 73
1347 73
1576 73
1691 73
1720 73
1927 73
1968 73
76 74
600 74
665 74
666 74
706 74
909 74
939 74
1102 74
1249 74
1384 74
1528 74
1554 74
1555 74
1805 74
87 75
243 75
429 75
477 75
692 75
837 75
904 75
993 75
1202 75
1345 75
1349 75
1511 75
1615 75
1779 75
1787 75
1807 75
97 76
132 76
139 76
165 76
281 76
373 76
399 76
617 76
646 76
848 76
976 76
998 76
1004 76
1023 76
1215 76
1289 76
1331 76
1384 76
1414 76
1429 76
1517 76
1590 76
1680 76
1707 76
1759 76
1789 76
1873 76
1877 76
1886 76
1921 76
200 77
312 77
379 77
432 77
502 77
625 77
715 77
872 77
901 77
971 77
1058 77
1143 77
1196 77
1202 77
1216 77
1365 77
1388 77
1492 77
1542 77
1672 77
1674 77
1741 77
1804 77
1954 77
1985 77
110 78
241 78
263 78
306 78
312 78
358 78
424 78
436 78
586 78
620 78
651 78
699 78
857 78
890 78
941 78
968 78
988 78
1014 78
1062 78
1188 78
1261 78
1358 78
1582 78
1601 78
1669 78
1734 78
1871 78
1897 78
1922 78
1968 78
241 79
589 79
720 79
749 79
776 79
805 79
815 79
848 79
887 79
1047 79
1319 79
1617 79
1924 79
1946 79
138 80
244 80
301 80
398 80
413 80
473 80
580 80
599 80
607 80
648 80
823 80
850 80
1008 80
1081 80
1238 80
1334 80
1451 80
1591 80
1940 80
1950 80
99 81
203 81
217 81
257 81
332 81
364 81
435 81
599 81
614 81
641 81
702 81
748 81
844 81
923 81
1284 81
1328 81
1520 81
1540 81
1581 81
1636 81
157 82
354 82
392 82
453 82
484 82
523 82
564 82
608 82
656 82
775 82
1036 82
1125 82
1139 82
1220 82
1271 82
1345 82
1624 82
1891 82
203 83
606 83
694 83
697 83
698 83
783 83
904 83
1074 83
1177 83
1300 83
1341 83
1652 83
1749 83
1883 83
135 84
286 84
449 84
512 84
618 84
660 84
803 84
818 84
964 84
1052 84
1109 84
1272 84
1386 84
1542 84
1656 84
1683 84
1969 84
321 85
335 85
410 85
678 85
701 85
752 85
962 85
1054 85
1096 85
1103 85
1289 85
1327 85
1603 85
1769 85
1884 85
177 86
238 86
241 86
325 86
368 86
384 86
635 86
681 86
755 86
804 86
962 86
1023 86
1159 86
1274 86
1538 86
1679 86
1789 86
1818 86
1854 86
1911 86
1954 86
105 87
121 87
213 87
219 87
374 87
443 87
457 87
463 87
535 87
612 87
695 87
738 87
866 87
1184 87
1269 87
1393 87
1436 87
1470 87
1475 87
1720 87
1771 87
1838 87
1952 87
1974 87
234 88
321 88
373 88
378 88
390 88
399 88
431 88
484 88
496 88
596 88
712 88
738 88
771 88
1242 88
1249 88
1362 88
1454 88
1514 88
1689 88
1711 88
1837 88
1923 88
1944 88
98 89
166 89
282 89
454 89
479 89
505 89
520 89
581 89
616 89
626 89
764 89
785 89
914 89
968 89
969 89
1203 89
1240 89
1358 89
1567 89
1631 89
1816 89
264 90
269 90
389 90
392 90
408 90
506 90
523 90
593 90
614 90
632 90
805 90
881 90
1073 90
1128 90
1313 90
1416 90
1432 90
1629 90
1666 90
1687 90
1755 90
101 91
196 91
244 91
351 91
352 91
381 91
459 91
627 91
803 91
812 91
834 91
896 91
1036 91
1277 91
1281 91
1400 91
1493 91
1695 91
1713 91
1811 91
147 92
255 92
341 92
404 92
549 92
583 92
646 92
704 92
791 92
977 92
1008 92
1244 92
1251 92
1258 92
1428 92
1600 92
1759 92
1828 92
234 93
259 93
445 93
552 93
834 93
945 93
1003 93
1055 93
1183 93
1196 93
1287 93
1304 93
1438 93
1575 93
1615 93
1643 93
1686 93
1704 93
1758 93
1897 93
200 94
264 94
318 94
366 94
371 94
422 94
461 94
485 94
525 94
547 94
731 94
769 94
786 94
921 94
1032 94
1046 94
1313 94
1443 94
1499 94
1637 94
1672 94
1674 94
1784 94
286 95
389 95
392 95
615 95
624 95
660 95
745 95
769 95
774 95
935 95
1065 95
1159 95
1176 95
1187 95
1529 95
1551 95
1765 95
320 96
358 96
689 96
777 96
799 96
828 96
922 96
1241 96
1303 96
1460 96
1496 96
1594 96
1658 96
1830 96
122 97
187 97
190 97
232 97
334 97
668 97
790 97
792 97
807 97
937 97
984 97
1048 97
1107 97
1262 97
1389 97
1815 97
1884 97
117 98
173 98
379 98
635 98
696 98
751 98
755 98
937 98
961 98
970 98
971 98
1010 98
1055 98
1333 98
1349 98
1496 98
1515 98
1568 98
1589 98
1647 98
1673 98
1734 98
1980 98
1986 98
1999 98
126 99
152 99
155 99
178 99
195 99
212 99
317 99
373 99
391 99
621 99
725 99
820 99
827 99
980 99
1036 99
1100 99
1369 99
1391 99
1420 99
1449 99
1497 99
1506 99
1598 99
1770 99
1910 99
1974 99
1990 99
222 100
390 100
500 100
508 100
617 100
633 100
905 100
1144 100
1187 100
1315 100
1367 100
1369 100
1513 100
1547 100
1562 100
1598 100
1666 100
1697 100
1845 100
1981 100
200 101
239 101
503 101
775 101
783 101
1020 101
1021 101
1196 101
1263 101
1356 101
1413 101
1642 101
1652 101
1660 101
1762 101
165 102
255 102
322 102
354 102
574 102
855 102
959 102
1033 102
1266 102
1285 102
1427 102
1535 102
1660 102
1972 102
200 103
269 103
500 103
691 103
750 103
764 103
806 103
825 103
1001 103
1209 103
1339 103
1483 103
1650 103
157 104
301 104
379 104
487 104
488 104
544 104
672 104
762 104
874 104
971 104
1037 104
1068 104
1311 104
1569 104
1688 104
1817 104
1998 104
2000 104
186 105
440 105
515 105
578 105
582 105
874 105
889 105
1043 105
1122 105
1196 105
1264 105
1399 105
1473 105
1545 105
1566 105
1637 105
1676 105
1679 105
1729 105
1964 105
173 106
201 106
206 106
226 106
510 106
610 106
697 106
736 106
998 106
1240 106
1265 106
1293 106
1299 106
1320 106
1375 106
1512 106
1619 106
1740 106
1832 106
1961 106
1974 106
213 107
267 107
291 107
334 107
413 107
798 107
800 107
836 107
1194 107
1260 107
1261 107
1354 107
1555 107
1614 107
1626 107
1978 107
208 108
397 108
401 108
403 108
561 108
577 108
715 108
785 108
845 108
1045 108
1268 108
1270 108
1273 108
1341 108
1393 108
1494 108
1548 108
1551 108
1763 108
1764 108
1842 108
1928 108
1951 108
213 109
283 109
350 109
410 109
557 109
633 109
816 109
827 109
902 109
921 109
998 109
1017 109
1042 109
1516 109
1749 109
1819 109
1846 109
151 110
215 110
222 110
377 110
470 110
703 110
969 110
1019 110
1243 110
1397 110
1501 110
1546 110
1746 110
1951 110
1981 110
133 111
262 111
314 111
367 111
460 111
622 111
636 111
723 111
883 111
888 111
1020 111
1022 111
1092 111
1099 111
1179 111
1274 111
1463 111
1480 111
1507 111
1653 111
1674 111
1726 111
1728 111
1854 111
1871 111
267 112
402 112
553 112
671 112
729 112
785 112
795 112
949 112
1299 112
1432 112
1561 112
1738 112
1883 112
123 113
236 113
451 113
585 113
597 113
693 113
766 113
773 113
808 113
1020 113
1252 113
1469 113
1525 113
1545 113
1690 113
1737 113
1819 113
1917 113
149 114
238 114
261 114
563 114
653 114
751 114
834 114
836 114
988 114
999 114
1012 114
1110 114
1184 114
1402 114
1436 114
1514 114
1977 114
171 115
399 115
547 115
611 115
643 115
811 115
1245 115
1253 115
1271 115
1330 115
1372 115
1572 115
1574 115
1577 115
1831 115
1905 115
1931 115
1957 115
1998 115
362 116
507 116
690 116
889 116
894 116
908 116
1217 116
1301 116
1380 116
1452 116
1552 116
1596 116
1645 116
1813 116
1901 116
413 117
568 117
670 117
676 117
990 117
1151 117
1171 117
1341 117
1732 117
1867 117
138 118
154 118
537 118
540 118
603 118
734 118
736 118
752 118
753 118
828 118
862 118
910 118
1035 118
1155 118
1260 118
1278 118
1404 118
1773 118
135 119
228 119
244 119
302 119
386 119
746 119
749 119
802 119
880 119
934 119
982 119
1004 119
1013 119
1020 119
1206 119
1268 119
1385 119
1394 119
1525 119
1644 119
1823 119
1886 119
1905 119
156 120
179 120
307 120
333 120
492 120
624 120
626 120
633 120
769 120
819 120
821 120
953 120
1014 120
1082 120
1277 120
1363 120
1432 120
1563 120
1711 120
1726 120
1875 120
155 121
206 121
215 121
293 121
318 121
855 121
901 121
1064 121
1142 121
1159 121
1206 121
1311 121
1414 121
1518 121
1540 121
1560 121
1623 121
1733 121
1817 121
1932 121
179 122
485 122
589 122
702 122
719 122
753 122
1100 122
1199 122
1389 122
1675 122
1680 122
1791 122
1792 122
1879 122
2000 122
159 123
160 123
262 123
554 123
581 123
765 123
881 123
1070 123
1139 123
1220 123
1323 123
1462 123
1489 123
1609 123
1692 123
1852 123
1874 123
1930 123
1955 123
521 124
595 124
788 124
917 124
1145 124
1189 124
1203 124
1214 124
1389 124
1682 124
1714 124
1837 124
1971 124
390 125
581 125
813 125
889 125
918 125
1106 125
1115 125
1127 125
1149 125
1223 125
1410 125
1555 125
1599 125
1937 125
252 126
425 126
943 126
1048 126
1120 126
1171 126
1482 126
1771 126
1836 126
315 127
324 127
483 127
726 127
904 127
985 127
1211 127
1224 127
1391 127
1679 127
1761 127
1882 127
1930 127
154 128
509 128
586 128
610 128
622 128
733 128
846 128
873 128
982 128
1126 128
1189 128
1203 128
1230 128
1322 128
1439 128
1468 128
1567 128
1664 128
1689 128
1730 128
1750 128
1807 128
1813 128
1834 128
1938 128
174 129
180 129
185 129
316 129
318 129
406 129
574 129
637 129
749 129
757 129
908 129
927 129
986 129
1089 129
1402 129
1431 129
1683 129
1686 129
1705 129
1771 129
1787 129
1809 129
1844 129
1860 129
1874 129
1903 129
1927 129
200 130
298 130
303 130
353 130
435 130
509 130
534 130
599 130
643 130
717 130
761 130
796 130
907 130
925 130
980 130
1238 130
1269 130
1405 130
1469 130
1723 130
1816 130
1875 130
1994 130
182 131
321 131
355 131
387 131
550 131
689 131
764 131
865 131
878 131
888 131
894 131
961 131
973 131
1076 131
1279 131
1403 131
1522 131
1588 131
1604 131
1712 131
1802 131
1917 131
1925 131
1963 131
1997 131
224 132
244 132
315 132
425 132
426 132
490 132
624 132
650 132
724 132
773 132
928 132
1002 132
1015 132
1085 132
1099 132
1126 132
1350 132
1480 132
1605 132
1700 132
1743 132
1923 132
173 133
209 133
264 133
549 133
581 133
665 133
709 133
732 133
744 133
778 133
886 133
1265 133
1398 133
1497 133
1527 133
1717 133
1778 133
1831 133
1884 133
1927 133
1982 133
199 134
282 134
339 134
410 134
445 134
456 134
491 134
880 134
884 134
1016 134
1279 134
1341 134
1605 134
1665 134
1733 134
1742 134
1775 134
1852 134
142 135
221 135
286 135
287 135
296 135
602 135
797 135
969 135
1232 135
1411 135
1429 135
1560 135
1616 135
1842 135
1852 135
1941 135
1950 135
335 136
454 136
487 136
736 136
745 136
783 136
785 136
813 136
864 136
944 136
957 136
1039 136
1161 136
1212 136
1251 136
1860 136
227 137
289 137
324 137
358 137
379 137
384 137
478 137
483 137
530 137
657 137
721 137
812 137
863 137
911 137
969 137
1088 137
1221 137
1246 137
1291 137
1349 137
1400 137
1445 137
1471 137
1538 137
1925 137
1936 137
191 138
233 138
295 138
303 138
395 138
552 138
902 138
934 138
1017 138
1020 138
1078 138
1114 138
1262 138
1569 138
1720 138
1881 138
1891 138
1931 138
1942 138
1947 138
191 139
429 139
438 139
464 139
642 139
746 139
881 139
892 139
898 139
953 139
961 139
1165 139
1232 139
1233 139
1279 139
1316 139
1406 139
1615 139
1760 139
1821 139
1840 139
1939 139
1951 139
176 140
209 140
210 140
368 140
369 140
398 140
421 140
443 140
557 140
696 140
770 140
856 140
907 140
971 140
1052 140
1173 140
1182 140
1201 140
1401 140
1454 140
1515 140
1522 140
1594 140
1806 140
214 141
362 141
436 141
508 141
546 141
586 141
845 141
879 141
1001 141
1027 141
1308 141
1506 141
1587 141
1678 141
1753 141
1827 141
1867 141
1917 141
1949 141
173 142
227 142
877 142
935 142
1024 142
1123 142
1153 142
1328 142
1496 142
1502 142
1699 142
1703 142
1705 142
1795 142
1830 142
198 143
244 143
378 143
382 143
386 143
499 143
570 143
571 143
581 143
617 143
784 143
847 143
863 143
903 143
969 143
1238 143
1347 143
1475 143
1701 143
1761 143
1800 143
1880 143
1886 143
1895 143
1913 143
146 144
329 144
365 144
493 144
595 144
605 144
684 144
772 144
877 144
921 144
1118 144
1137 144
1163 144
1422 144
1514 144
1675 144
1898 144
1962 144
244 145
273 145
359 145
450 145
507 145
537 145
680 145
727 145
736 145
1440 145
1538 145
1562 145
1601 145
1615 145
1706 145
1774 145
1784 145
1920 145
188 146
294 146
297 146
339 146
406 146
488 146
524 146
744 146
864 146
1022 146
1105 146
1199 146
1567 146
1784 146
269 147
364 147
589 147
596 147
604 147
1039 147
1047 147
1125 147
1157 147
1289 147
1312 147
1321 147
1323 147
1330 147
1392 147
1433 147
1525 147
1636 147
1638 147
1661 147
1844 147
1864 147
261 148
358 148
397 148
567 148
568 148
806 148
868 148
942 148
1109 148
1238 148
1273 148
1293 148
1474 148
1699 148
1729 148
1752 148
1775 148
1842 148
1865 148
1991 148
197 149
204 149
277 149
706 149
808 149
885 149
1011 149
1294 149
1305 149
1366 149
1369 149
1571 149
1803 149
1869 149
1904 149
559 150
580 150
921 150
949 150
1060 150
1075 150
1128 150
1145 150
1267 150
1295 150
1631 150
1980 150
259 151
265 151
282 151
297 151
353 151
486 151
559 151
596 151
710 151
988 151
1100 151
1137 151
1179 151
1310 151
1476 151
1480 151
1674 151
1837 151
1877 151
1985 151
295 152
359 152
413 152
472 152
567 152
674 152
831 152
839 152
929 152
933 152
1011 152
1202 152
1215 152
1482 152
1563 152
1644 152
1721 152
1823 152
417 153
432 153
519 153
561 153
811 153
830 153
839 153
958 153
959 153
1199 153
1243 153
1338 153
1364 153
1464 153
1504 153
1685 153
1715 153
1767 153
159 154
494 154
755 154
1123 154
1182 154
1233 154
1324 154
1339 154
1377 154
1528 154
1654 154
1857 154
1999 154
344 155
559 155
567 155
599 155
640 155
664 155
791 155
864 155
901 155
906 155
985 155
1010 155
1036 155
1104 155
1124 155
1209 155
1232 155
1332 155
1523 155
1558 155
1662 155
1740 155
1752 155
1779 155
1976 155
202 156
510 156
700 156
938 156
958 156
1074 156
1139 156
1378 156
1502 156
1700 156
1866 156
1903 156
1930 156
158 157
196 157
277 157
449 157
485 157
604 157
694 157
722 157
759 157
848 157
863 157
877 157
885 157
932 157
990 157
1034 157
1046 157
1047 157
1193 157
1280 157
1413 157
1426 157
1473 157
1732 157
1740 157
1848 157
171 158
203 158
236 158
332 158
368 158
537 158
689 158
1022 158
1129 158
1202 158
1309 158
1312 158
1399 158
1449 158
1470 158
1513 158
1560 158
1609 158
1633 158
1684 158
189 159
225 159
295 159
427 159
442 159
472 159
575 159
648 159
691 159
738 159
756 159
850 159
1005 159
1054 159
1136 159
1166 159
1227 159
1372 159
1472 159
1518 159
1555 159
1697 159
1728 159
1796 159
1932 159
1972 159
302 160
345 160
468 160
580 160
687 160
696 160
714 160
898 160
917 160
1019 160
1046 160
1289 160
1345 160
1391 160
1453 160
1510 160
1898 160
299 161
380 161
472 161
498 161
661 161
668 161
766 161
774 161
787 161
925 161
1187 161
1219 161
1271 161
1333 161
1448 161
1454 161
1496 161
1557 161
1697 161
1773 161
1926 161
382 162
682 162
799 162
1008 162
1011 162
1055 162
1058 162
1103 162
1375 162
1504 162
1518 162
1579 162
1585 162
1597 162
1822 162
1892 162
1909 162
1942 162
1997 162
511 163
515 163
629 163
857 163
929 163
980 163
1003 163
1071 163
1112 163
1127 163
1191 163
1238 163
1276 163
1286 163
1328 163
1329 163
1437 163
1618 163
1649 163
1851 163
1899 163
265 164
333 164
391 164
396 164
448 164
631 164
691 164
792 164
994 164
1281 164
1472 164
1577 164
1694 164
1708 164
1880 164
1892 164
1932 164
445 165
451 165
726 165
975 165
1139 165
1164 165
1218 165
1358 165
1423 165
1538 165
1552 165
1562 165
1571 165
1619 165
1663 165
1971 165
322 166
478 166
577 166
609 166
668 166
695 166
696 166
1006 166
1054 166
1233 166
1250 166
1265 166
1499 166
1728 166
1838 166
1926 166
176 167
301 167
376 167
531 167
729 167
930 167
952 167
1445 167
1894 167
1966 167
1967 167
218 168
379 168
622 168
900 168
1055 168
1122 168
1164 168
1201 168
1268 168
1278 168
1359 168
1361 168
1408 168
1459 168
1860 168
351 169
446 169
480 169
510 169
609 169
789 169
799 169
1077 169
1120 169
1152 169
1209 169
1242 169
1385 169
1575 169
1582 169
1722 169
1784 169
1847 169
1941 169
1978 169
255 170
318 170
524 170
585 170
638 170
782 170
896 170
992 170
996 170
1018 170
1119 170
1204 170
1342 170
1386 170
1577 170
199 171
246 171
250 171
287 171
313 171
586 171
629 171
795 171
872 171
906 171
950 171
1071 171
1200 171
1245 171
1280 171
1299 171
1333 171
1356 171
1411 171
1415 171
1498 171
1522 171
1750 171
1792 171
557 172
617 172
712 172
876 172
940 172
1030 172
1060 172
1123 172
1256 172
1263 172
1377 172
1391 172
1483 172
1740 172
1804 172
174 173
228 173
241 173
426 173
461 173
763 173
869 173
974 173
990 173
1095 173
1107 173
1125 173
1139 173
1171 173
1522 173
1729 173
1776 173
1841 173
1892 173
1936 173
292 174
317 174
356 174
361 174
716 174
855 174
1122 174
1320 174
1362 174
1454 174
1583 174
1745 174
1751 174
1843 174
1963 174
1988 174
251 175
255 175
275 175
291 175
317 175
392 175
415 175
480 175
490 175
500 175
618 175
668 175
683 175
718 175
756 175
994 175
1024 175
1026 175
1051 175
1157 175
1433 175
1517 175
1758 175
243 176
273 176
428 176
458 176
521 176
641 176
642 176
644 176
651 176
742 176
755 176
864 176
890 176
907 176
911 176
968 176
972 176
1312 176
1359 176
1525 176
1584 176
1677 176
1716 176
205 177
233 177
324 177
399 177
520 177
533 177
554 177
730 177
752 177
1105 177
1138 177
1291 177
1607 177
1626 177
1676 177
1932 177
1971 177
1987 177
387 178
424 178
440 178
853 178
1063 178
1479 178
1492 178
1868 178
1996 178
424 179
436 179
594 179
775 179
819 179
829 179
836 179
973 179
1117 179
1182 179
1215 179
1274 179
1547 179
1624 179
1628 179
1654 179
1820 179
1876 179
1921 179
1949 179
310 180
451 180
464 180
491 180
623 180
768 180
796 180
824 180
852 180
909 180
947 180
1285 180
1304 180
1339 180
1434 180
1473 180
1496 180
1524 180
1587 180
1835 180
1852 180
1858 180
1871 180
1961 180
387 181
399 181
436 181
517 181
571 181
715 181
808 181
809 181
1080 181
1232 181
1326 181
1398 181
1537 181
1598 181
1705 181
1716 181
1912 181
227 182
242 182
277 182
360 182
379 182
641 182
727 182
737 182
934 182
1054 182
1072 182
1134 182
1188 182
1225 182
1410 182
1471 182
1583 182
1611 182
1903 182
1958 182
1966 182
1980 182
249 183
257 183
388 183
671 183
782 183
924 183
983 183
1033 183
1131 183
1484 183
1546 183
1594 183
1821 183
1896 183
1980 183
255 184
289 184
332 184
354 184
386 184
579 184
600 184
623 184
744 184
780 184
790 184
817 184
905 184
961 184
983 184
993 184
1217 184
1335 184
1420 184
1422 184
1640 184
1794 184
1821 184
1851 184
1947 184
1954 184
253 185
312 185
330 185
415 185
564 185
620 185
641 185
654 185
965 185
1163 185
1192 185
1288 185
1411 185
1515 185
1609 185
1881 185
1934 185
1960 185
1992 185
573 186
606 186
645 186
717 186
767 186
769 186
946 186
997 186
1094 186
1554 186
1583 186
1607 186
1658 186
1857 186
1885 186
1899 186
1978 186
199 187
268 187
304 187
320 187
350 187
357 187
424 187
436 187
477 187
777 187
806 187
987 187
995 187
1004 187
1212 187
1353 187
1656 187
1663 187
1819 187
1823 187
574 188
876 188
960 188
1129 188
1181 188
1223 188
1325 188
1342 188
1611 188
1881 188
1901 188
249 189
340 189
408 189
454 189
514 189
680 189
689 189
745 189
782 189
788 189
829 189
1209 189
1240 189
1304 189
1399 189
1517 189
1550 189
1624 189
1665 189
1963 189
216 190
319 190
337 190
342 190
362 190
569 190
646 190
864 190
962 190
1067 190
1175 190
1280 190
1353 190
1527 190
1571 190
1632 190
1746 190
1754 190
1844 190
1986 190
259 191
347 191
369 191
433 191
767 191
851 191
882 191
920 191
931 191
963 191
1243 191
1263 191
1288 191
1389 191
1646 191
1725 191
1783 191
1910 191
1968 191
300 192
517 192
552 192
726 192
744 192
849 192
904 192
951 192
984 192
1154 192
1283 192
1461 192
1568 192
1655 192
1736 192
1770 192
1997 192
223 193
352 193
391 193
503 193
565 193
891 193
925 193
954 193
986 193
1086 193
1305 193
1307 193
1339 193
1444 193
1548 193
1970 193
1971 193
208 194
287 194
329 194
349 194
663 194
764 194
864 194
915 194
969 194
1017 194
1335 194
1480 194
1571 194
1596 194
1641 194
1720 194
1726 194
1783 194
1805 194
1823 194
1842 194
201 195
204 195
205 195
363 195
399 195
408 195
578 195
665 195
727 195
745 195
815 195
924 195
944 195
976 195
1048 195
1070 195
1148 195
1274 195
1293 195
1310 195
1343 195
1487 195
1541 195
1639 195
1640 195
1721 195
1754 195
1845 195
284 196
419 196
533 196
558 196
648 196
654 196
794 196
814 196
831 196
974 196
978 196
1114 196
1123 196
1144 196
1179 196
1283 196
1303 196
1327 196
1770 196
1840 196
1930 196
1935 196
1936 196
1986 196
287 197
361 197
392 197
502 197
526 197
662 197
734 197
742 197
963 197
973 197
1161 197
1212 197
1315 197
1350 197
1400 197
1442 197
1505 197
1692 197
1759 197
1797 197
1806 197
1934 197
232 198
234 198
269 198
364 198
459 198
650 198
661 198
708 198
853 198
890 198
966 198
1032 198
1142 198
1220 198
1473 198
1493 198
1635 198
444 199
653 199
724 199
937 199
1007 199
1060 199
1418 199
1423 199
1579 199
1753 199
1952 199
238 200
261 200
316 200
408 200
727 200
769 200
904 200
960 200
970 200
1008 200
1087 200
1134 200
1166 200
1266 200
1587 200
1623 200
1638 200
1704 200
1727 200
1754 200
1886 200
365 201
426 201
522 201
547 201
826 201
929 201
1029 201
1087 201
1166 201
1424 201
1571 201
1596 201
1599 201
1650 201
1729 201
239 202
500 202
777 202
949 202
1033 202
1147 202
1206 202
1276 202
1341 202
1359 202
1789 202
1836 202
1846 202
1905 202
329 203
492 203
614 203
852 203
893 203
958 203
1020 203
1243 203
1339 203
1373 203
1390 203
1414 203
1881 203
270 204
319 204
382 204
387 204
412 204
629 204
661 204
682 204
874 204
1255 204
1345 204
1348 204
1417 204
1482 204
1483 204
1548 204
1591 204
1925 204
1968 204
1994 204
567 205
674 205
749 205
805 205
885 205
957 205
1114 205
1127 205
1210 205
1339 205
1351 205
1436 205
1629 205
1649 205
1890 205
1892 205
1944 205
1968 205
251 206
314 206
444 206
498 206
568 206
587 206
707 206
784 206
879 206
907 206
933 206
1117 206
1139 206
1219 206
1236 206
1250 206
1430 206
1440 206
1637 206
1917 206
1982 206
1984 206
260 207
405 207
446 207
460 207
485 207
615 207
620 207
804 207
851 207
1296 207
1503 207
1569 207
1612 207
1727 207
1736 207
1761 207
1989 207
282 208
363 208
418 208
479 208
893 208
1306 208
1372 208
1428 208
1857 208
1918 208
1965 208
788 209
888 209
989 209
1164 209
1421 209
1437 209
1446 209
1570 209
1623 209
1662 209
1760 209
1815 209
1874 209
1924 209
1941 209
383 210
452 210
627 210
767 210
848 210
849 210
1020 210
1149 210
1170 210
1249 210
1353 210
1393 210
1430 210
1469 210
1626 210
1812 210
229 211
567 211
586 211
731 211
733 211
881 211
889 211
1156 211
1289 211
1368 211
1431 211
1569 211
1632 211
1764 211
1870 211
1929 211
293 212
312 212
752 212
805 212
807 212
1014 212
1023 212
1190 212
1230 212
1266 212
1462 212
1578 212
1632 212
1696 212
1783 212
1967 212
502 213
844 213
917 213
1341 213
1454 213
1510 213
1565 213
1611 213
1649 213
1674 213
1816 213
1890 213
683 214
714 214
976 214
1051 214
1147 214
1173 214
1204 214
1628 214
1642 214
1840 214
1994 214
304 215
340 215
480 215
529 215
551 215
634 215
721 215
752 215
776 215
838 215
1049 215
1207 215
1313 215
1550 215
1573 215
1672 215
1783 215
250 216
383 216
529 216
608 216
851 216
865 216
1032 216
1155 216
1293 216
1426 216
1482 216
1844 216
1882 216
1891 216
1975 216
388 217
520 217
546 217
626 217
673 217
762 217
895 217
975 217
1184 217
1248 217
1439 217
1571 217
1631 217
1686 217
1782 217
1783 217
1827 217
1875 217
1885 217
1955 217
1992 217
281 218
340 218
480 218
546 218
668 218
789 218
1031 218
1256 218
1358 218
1486 218
1664 218
1852 218
1915 218
352 219
485 219
634 219
657 219
730 219
781 219
949 219
1130 219
1219 219
1238 219
1298 219
1343 219
1571 219
1609 219
1715 219
1719 219
1744 219
1747 219
1908 219
1954 219
239 220
278 220
323 220
347 220
398 220
457 220
481 220
535 220
556 220
595 220
656 220
681 220
755 220
985 220
1027 220
1043 220
1073 220
1109 220
1112 220
1132 220
1380 220
1423 220
1556 220
1596 220
1783 220
1827 220
1891 220
645 221
906 221
950 221
1127 221
1151 221
1243 221
1438 221
1443 221
1723 221
1755 221
1855 221
1913 221
329 222
424 222
656 222
1093 222
1103 222
1272 222
1326 222
1345 222
1393 222
360 223
404 223
516 223
787 223
893 223
999 223
1010 223
1077 223
1090 223
1341 223
1359 223
1375 223
1629 223
1674 223
1727 223
1732 223
257 224
324 224
409 224
573 224
584 224
827 224
835 224
1011 224
1018 224
1369 224
1821 224
1844 224
1860 224
1869 224
1993 224
227 225
326 225
514 225
727 225
837 225
965 225
1087 225
1136 225
1179 225
1253 225
1502 225
1617 225
1657 225
1715 225
1934 225
530 226
710 226
795 226
1187 226
1430 226
1542 226
1588 226
1647 226
1723 226
1790 226
310 227
421 227
628 227
668 227
869 227
880 227
1037 227
1125 227
1160 227
1170 227
1198 227
1382 227
1536 227
1585 227
1645 227
1909 227
1933 227
253 228
262 228
381 228
500 228
522 228
760 228
794 228
814 228
1337 228
1447 228
1484 228
1525 228
1540 228
1569 228
1627 228
1731 228
1736 228
1768 228
1991 228
253 229
260 229
282 229
284 229
406 229
489 229
574 229
645 229
763 229
1025 229
1234 229
1301 229
1319 229
1353 229
1638 229
1682 229
1833 229
1971 229
254 230
266 230
285 230
455 230
542 230
1079 230
1098 230
1111 230
1118 230
1158 230
1189 230
1837 230
1924 230
353 231
542 231
705 231
726 231
821 231
900 231
937 231
948 231
1088 231
1318 231
1378 231
1493 231
1502 231
1518 231
1604 231
1648 231
1699 231
1716 231
1962 231
1996 231
257 232
270 232
279 232
626 232
698 232
759 232
861 232
925 232
1209 232
1364 232
1490 232
1522 232
1548 232
1689 232
252 233
292 233
423 233
455 233
554 233
587 233
1034 233
1176 233
1248 233
1333 233
1386 233
1810 233
1832 233
236 234
433 234
723 234
838 234
953 234
1017 234
1393 234
1895 234
1913 234
1956 234
241 235
255 235
336 235
400 235
431 235
449 235
513 235
516 235
551 235
601 235
639 235
984 235
1035 235
1063 235
1087 235
1118 235
1497 235
1502 235
1527 235
1714 235
1972 235
356 236
479 236
636 236
1103 236
1170 236
1284 236
1518 236
1564 236
1620 236
1640 236
1644 236
1782 236
335 237
427 237
454 237
516 237
566 237
601 237
646 237
696 237
718 237
775 237
833 237
934 237
1048 237
1195 237
1243 237
1261 237
1377 237
1403 237
1450 237
1492 237
1762 237
1862 237
1883 237
1962 237
389 238
467 238
702 238
704 238
798 238
988 238
1110 238
1501 238
1577 238
1619 238
1640 238
1821 238
261 239
569 239
633 239
756 239
819 239
1256 239
1258 239
1269 239
1346 239
1564 239
1587 239
1659 239
1843 239
1861 239
1881 239
515 240
661 240
1273 240
1647 240
1949 240
641 241
837 241
1042 241
1073 241
1386 241
1403 241
1436 241
1478 241
1752 241
1862 241
348 242
441 242
587 242
762 242
866 242
936 242
1074 242
1096 242
1193 242
1220 242
1294 242
1427 242
1450 242
1464 242
1501 242
1614 242
1671 242
1703 242
1902 242
317 243
332 243
362 243
427 243
434 243
541 243
580 243
603 243
718 243
727 243
768 243
1381 243
1581 243
1644 243
1702 243
403 244
429 244
482 244
504 244
702 244
708 244
834 244
1107 244
1140 244
1233 244
1252 244
1263 244
1362 244
1392 244
1403 244
1407 244
1529 244
1562 244
1686 244
1803 244
1880 244
1949 244
284 245
413 245
501 245
513 245
586 245
601 245
762 245
866 245
923 245
1128 245
1164 245
1171 245
1304 245
1431 245
1487 245
1508 245
1824 245
1828 245
1840 245
1870 245
1965 245
269 246
374 246
490 246
537 246
554 246
797 246
853 246
898 246
984 246
989 246
1296 246
1304 246
1306 246
1309 246
1365 246
1383 246
1627 246
1628 246
1762 246
1775 246
1823 246
1826 246
1842 246
271 247
274 247
413 247
769 247
847 247
944 247
979 247
1098 247
1276 247
1424 247
1462 247
1867 247
280 248
310 248
342 248
448 248
698 248
751 248
793 248
805 248
992 248
1024 248
1107 248
1319 248
1368 248
1457 248
1482 248
1690 248
1713 248
1722 248
1792 248
1880 248
1902 248
1945 248
281 249
366 249
380 249
421 249
477 249
508 249
642 249
656 249
700 249
987 249
1112 249
1115 249
1148 249
1177 249
1210 249
1261 249
1412 249
1477 249
1481 249
1616 249
1627 249
1997 249
373 250
380 250
541 250
547 250
614 250
699 250
717 250
730 250
788 250
791 250
1174 250
1331 250
1573 250
1762 250
1963 250
360 251
399 251
449 251
521 251
719 251
871 251
929 251
1186 251
1245 251
1366 251
1382 251
1400 251
1550 251
1625 251
1697 251
1735 251
1785 251
1824 251
1838 251
1839 251
1932 251
1948 251
1994 251
297 252
330 252
444 252
527 252
693 252
848 252
852 252
856 252
995 252
1014 252
1237 252
1598 252
1613 252
1712 252
1782 252
1948 252
1951 252
372 253
393 253
442 253
721 253
808 253
1014 253
1248 253
1331 253
1434 253
1536 253
1685 253
1737 253
377 254
451 254
592 254
608 254
753 254
787 254
901 254
1015 254
1132 254
1151 254
1160 254
1202 254
1333 254
1349 254
1411 254
1421 254
1513 254
1554 254
1590 254
1595 254
1653 254
1712 254
1844 254
1968 254
363 255
481 255
484 255
587 255
928 255
933 255
938 255
945 255
992 255
1095 255
1109 255
1169 255
1257 255
1296 255
1375 255
1438 255
1482 255
1519 255
1694 255
1703 255
287 256
328 256
493 256
699 256
814 256
855 256
915 256
954 256
998 256
1219 256
1346 256
1412 256
1427 256
1505 256
1545 256
1580 256
1710 256
1896 256
258 257
559 257
806 257
824 257
979 257
1064 257
1204 257
1214 257
1301 257
1335 257
1360 257
1366 257
1480 257
1551 257
1585 257
1721 257
1795 257
1854 257
1999 257
275 258
347 258
726 258
781 258
825 258
1049 258
1149 258
1220 258
1504 258
1581 258
1764 258
1770 258
269 259
280 259
505 259
545 259
564 259
695 259
697 259
753 259
886 259
979 259
1156 259
1232 259
1440 259
1470 259
1521 259
1618 259
1626 259
1898 259
392 260
462 260
682 260
993 260
1001 260
1014 260
1146 260
1746 260
1782 260
363 261
542 261
548 261
753 261
769 261
914 261
954 261
1085 261
1122 261
1214 261
1225 261
1226 261
1525 261
1677 261
1731 261
1758 261
1899 261
317 262
405 262
487 262
710 262
898 262
911 262
994 262
1274 262
1324 262
1362 262
1411 262
1480 262
1511 262
1541 262
1566 262
1579 262
1824 262
369 263
467 263
592 263
659 263
691 263
749 263
957 263
1267 263
1281 263
1387 263
1849 263
1928 263
322 264
348 264
453 264
455 264
493 264
575 264
598 264
601 264
624 264
642 264
973 264
1036 264
1064 264
1187 264
1274 264
1438 264
1493 264
1556 264
1681 264
1938 264
315 265
579 265
639 265
730 265
953 265
1000 265
1158 265
1234 265
1286 265
1321 265
1341 265
1346 265
1463 265
1781 265
1885 265
1918 265
1988 265
288 266
378 266
412 266
607 266
616 266
659 266
678 266
845 266
981 266
1237 266
1263 266
1319 266
1373 266
1422 266
1482 266
1578 266
1590 266
1596 266
1710 266
1714 266
1880 266
1953 266
420 267
489 267
498 267
506 267
734 267
773 267
846 267
1510 267
1579 267
1619 267
1749 267
271 268
339 268
433 268
809 268
824 268
1010 268
1015 268
1075 268
1268 268
1448 268
1518 268
1564 268
1722 268
1759 268
1853 268
448 269
645 269
686 269
858 269
859 269
894 269
962 269
1020 269
1157 269
1274 269
1332 269
1423 269
1828 269
1945 269
413 270
503 270
554 270
683 270
690 270
701 270
706 270
867 270
1015 270
1030 270
1133 270
1137 270
1138 270
1209 270
1305 270
1421 270
1736 270
1769 270
1825 270
1835 270
1892 270
1981 270
275 271
320 271
410 271
457 271
585 271
664 271
1015 271
1039 271
1060 271
1142 271
1198 271
1265 271
1486 271
1589 271
1662 271
1720 271
1810 271
1959 271
290 272
338 272
480 272
711 272
969 272
987 272
1070 272
1117 272
1151 272
1154 272
1166 272
1176 272
1262 272
1272 272
1287 272
1414 272
1578 272
1692 272
1819 272
1832 272
347 273
403 273
475 273
578 273
586 273
763 273
895 273
907 273
1054 273
1237 273
1252 273
1508 273
1607 273
1661 273
1794 273
1905 273
1920 273
307 274
316 274
395 274
597 274
636 274
657 274
771 274
876 274
988 274
1093 274
1182 274
1228 274
1280 274
1304 274
1424 274
1463 274
1636 274
1643 274
1676 274
1759 274
1963 274
371 275
374 275
394 275
966 275
982 275
1075 275
1266 275
1277 275
1365 275
1447 275
1654 275
1712 275
1817 275
378 276
537 276
557 276
666 276
794 276
864 276
949 276
979 276
1106 276
1148 276
1179 276
1268 276
1279 276
1287 276
1331 276
1333 276
1340 276
1811 276
1833 276
1838 276
1981 276
359 277
469 277
476 277
480 277
640 277
676 277
843 277
885 277
989 277
1067 277
1274 277
1298 277
1364 277
1410 277
1483 277
1535 277
1864 277
1943 277
332 278
389 278
787 278
1180 278
1251 278
1269 278
1315 278
1474 278
1490 278
1648 278
1705 278
1723 278
1725 278
1730 278
1887 278
1933 278
1973 278
1983 278
305 279
419 279
445 279
512 279
637 279
659 279
682 279
685 279
887 279
1014 279
1038 279
1061 279
1126 279
1230 279
1393 279
1509 279
1528 279
1584 279
1607 279
1741 279
1998 279
305 280
331 280
384 280
612 280
834 280
954 280
1016 280
1150 280
1203 280
1238 280
1580 280
1846 280
410 281
553 281
636 281
643 281
800 281
867 281
939 281
1156 281
1168 281
1265 281
1286 281
1296 281
1349 281
1487 281
1560 281
1628 281
1641 281
1858 281
1938 281
1968 281
366 282
433 282
725 282
817 282
1035 282
1049 282
1098 282
1108 282
1166 282
1512 282
1542 282
1577 282
1581 282
1820 282
1918 282
1984 282
289 283
310 283
338 283
361 283
395 283
505 283
524 283
641 283
765 283
820 283
1249 283
1274 283
1392 283
1439 283
1588 283
1688 283
1690 283
1842 283
1867 283
1999 283
320 284
411 284
489 284
523 284
540 284
555 284
574 284
623 284
716 284
862 284
877 284
1151 284
1154 284
1274 284
1389 284
1614 284
1874 284
1952 284
342 285
470 285
509 285
691 285
744 285
1024 285
1079 285
1366 285
1389 285
1652 285
1713 285
1816 285
1852 285
1918 285
1960 285
303 286
355 286
379 286
421 286
440 286
687 286
970 286
1034 286
1053 286
1466 286
1497 286
1635 286
1723 286
1927 286
1960 286
1969 286
289 287
443 287
451 287
478 287
671 287
712 287
784 287
807 287
921 287
963 287
987 287
1058 287
1151 287
1217 287
1275 287
1344 287
1532 287
1672 287
1704 287
1762 287
1813 287
295 288
365 288
451 288
555 288
586 288
599 288
656 288
658 288
984 288
1024 288
1094 288
1449 288
1673 288
1750 288
1905 288
1914 288
1937 288
1943 288
1974 288
1978 288
324 289
600 289
700 289
829 289
836 289
867 289
995 289
1053 289
1249 289
1539 289
1572 289
298 290
381 290
425 290
448 290
659 290
702 290
750 290
763 290
916 290
985 290
1051 290
1144 290
1271 290
1312 290
1345 290
1471 290
1547 290
1550 290
1671 290
1751 290
1826 290
1838 290
1841 290
1868 290
1875 290
1948 290
340 291
407 291
408 291
455 291
459 291
600 291
714 291
848 291
1071 291
1223 291
1229 291
1323 291
1341 291
1554 291
1691 291
1714 291
1768 291
1829 291
1839 291
394 292
397 292
406 292
717 292
781 292
821 292
1167 292
1222 292
1438 292
1668 292
1681 292
1704 292
728 293
865 293
973 293
1011 293
1208 293
1225 293
1399 293
1483 293
1612 293
1616 293
1855 293
1910 293
1970 293
1984 293
302 294
351 294
554 294
582 294
604 294
672 294
733 294
846 294
908 294
963 294
1116 294
1212 294
1261 294
1332 294
1414 294
1451 294
1474 294
1501 294
1507 294
1538 294
1742 294
1963 294
296 295
372 295
528 295
610 295
682 295
819 295
830 295
907 295
1113 295
1369 295
1414 295
1753 295
298 296
359 296
414 296
494 296
669 296
773 296
914 296
1122 296
1189 296
1824 296
1860 296
344 297
356 297
465 297
789 297
824 297
849 297
852 297
988 297
1154 297
1271 297
1643 297
1789 297
350 298
371 298
593 298
695 298
805 298
924 298
987 298
1056 298
1074 298
1102 298
1215 298
1338 298
1454 298
1482 298
1493 298
1515 298
1594 298
1599 298
1656 298
1657 298
398 299
443 299
479 299
491 299
502 299
518 299
634 299
684 299
712 299
740 299
865 299
996 299
1123 299
1134 299
1224 299
1258 299
1346 299
1353 299
1469 299
1785 299
1833 299
1918 299
1933 299
1996 299
330 300
602 300
965 300
1082 300
1092 300
1339 300
1661 300
1716 300
1730 300
1737 300
1800 300
1877 300
1881 300
1980 300
381 301
397 301
573 301
846 301
870 301
1073 301
1078 301
1109 301
1312 301
1524 301
1555 301
1841 301
1890 301
332 302
541 302
613 302
766 302
1196 302
1268 302
1416 302
1444 302
1534 302
1595 302
1781 302
1897 302
1903 302
1915 302
1983 302
308 303
400 303
422 303
484 303
622 303
637 303
653 303
784 303
799 303
925 303
1035 303
1353 303
1366 303
1388 303
1568 303
1823 303
1854 303
1858 303
1924 303
1925 303
389 304
399 304
498 304
640 304
917 304
966 304
990 304
998 304
1029 304
1050 304
1349 304
1517 304
1645 304
1822 304
1863 304
1975 304
421 305
428 305
475 305
499 305
827 305
882 305
924 305
961 305
1016 305
1085 305
1122 305
1236 305
1451 305
1690 305
1875 305
1958 305
692 306
723 306
754 306
779 306
834 306
854 306
986 306
1276 306
1322 306
1362 306
1405 306
1745 306
1754 306
1778 306
1978 306
382 307
562 307
607 307
636 307
677 307
720 307
758 307
815 307
891 307
898 307
949 307
1192 307
1255 307
1310 307
1425 307
1573 307
1657 307
1690 307
1714 307
1784 307
337 308
403 308
410 308
513 308
834 308
1099 308
1223 308
1638 308
1714 308
1749 308
1916 308
1975 308
490 309
538 309
540 309
632 309
790 309
1039 309
1432 309
1961 309
399 310
573 310
614 310
626 310
688 310
728 310
877 310
899 310
1017 310
1165 310
1395 310
1409 310
1649 310
1724 310
1998 310
321 311
557 311
715 311
787 311
832 311
868 311
938 311
1110 311
1380 311
1467 311
1535 311
1569 311
1777 311
1852 311
393 312
395 312
624 312
639 312
663 312
700 312
1002 312
1011 312
1116 312
1251 312
1533 312
1605 312
1715 312
1800 312
1875 312
1894 312
513 313
535 313
712 313
766 313
779 313
785 313
862 313
940 313
1022 313
1081 313
1154 313
1445 313
1521 313
1645 313
1789 313
1834 313
1847 313
1858 313
1942 313
567 314
655 314
684 314
688 314
839 314
859 314
1020 314
1039 314
1077 314
1078 314
1082 314
1168 314
1178 314
1357 314
1414 314
1601 314
1615 314
1661 314
1857 314
384 315
418 315
630 315
862 315
1109 315
1142 315
1245 315
1393 315
1646 315
1823 315
1956 315
575 316
579 316
600 316
682 316
818 316
1001 316
1071 316
1081 316
1111 316
1388 316
1398 316
1590 316
1705 316
1719 316
1761 316
1783 316
364 317
393 317
426 317
502 317
660 317
663 317
677 317
838 317
946 317
984 317
989 317
1141 317
1305 317
1421 317
1495 317
1622 317
1717 317
1771 317
1804 317
1869 317
1935 317
1944 317
346 318
466 318
796 318
1080 318
1214 318
1259 318
1374 318
1394 318
1399 318
1423 318
1462 318
1476 318
1578 318
1651 318
1820 318
1825 318
1848 318
1849 318
1982 318
341 319
378 319
406 319
702 319
755 319
821 319
981 319
1077 319
1311 319
1497 319
1700 319
1888 319
1898 319
540 320
601 320
782 320
829 320
848 320
871 320
960 320
1172 320
1192 320
1320 320
1354 320
1533 320
1748 320
1756 320
1814 320
1841 320
358 321
419 321
501 321
605 321
735 321
769 321
802 321
866 321
868 321
943 321
985 321
986 321
1137 321
1175 321
1189 321
1267 321
1385 321
1594 321
1641 321
1651 321
1668 321
1742 321
1888 321
333 322
393 322
441 322
465 322
508 322
862 322
914 322
981 322
1013 322
1456 322
1467 322
1580 322
1583 322
1608 322
1641 322
1792 322
1793 322
1836 322
1933 322
1980 322
1994 322
428 323
491 323
522 323
550 323
935 323
991 323
1091 323
1118 323
1120 323
1199 323
1203 323
1275 323
1309 323
1361 323
1423 323
1757 323
1825 323
1832 323
1952 323
417 324
640 324
655 324
753 324
1012 324
1044 324
1176 324
1399 324
1679 324
1852 324
1903 324
1923 324
1927 324
1953 324
1960 324
528 325
550 325
565 325
782 325
857 325
902 325
998 325
1015 325
1122 325
1294 325
1358 325
1434 325
1484 325
1717 325
1777 325
1837 325
1960 325
1970 325
1987 325
410 326
464 326
500 326
530 326
556 326
602 326
625 326
703 326
735 326
829 326
966 326
990 326
1127 326
1161 326
1178 326
1220 326
1235 326
1242 326
1264 326
1330 326
1345 326
1399 326
1417 326
1421 326
1435 326
1564 326
1734 326
1752 326
1877 326
1994 326
1996 326
459 327
489 327
596 327
837 327
882 327
1114 327
1120 327
1247 327
1350 327
1412 327
1473 327
1474 327
1947 327
491 328
656 328
701 328
811 328
819 328
890 328
995 328
1013 328
1044 328
1070 328
1285 328
1299 328
1481 328
1556 328
1626 328
1687 328
1800 328
1893 328
1946 328
854 329
883 329
887 329
905 329
982 329
1007 329
1042 329
1050 329
1053 329
1090 329
1203 329
1450 329
1509 329
1582 329
1614 329
1760 329
1773 329
1973 329
358 330
382 330
636 330
674 330
1148 330
1170 330
1174 330
1299 330
1379 330
1515 330
1556 330
1586 330
1666 330
1803 330
1844 330
1893 330
1987 330
407 331
455 331
481 331
544 331
563 331
653 331
656 331
675 331
688 331
945 331
1119 331
1221 331
1384 331
1387 331
1433 331
1471 331
1503 331
1570 331
1684 331
1712 331
1717 331
1790 331
1810 331
1885 331
1967 331
400 332
457 332
679 332
716 332
740 332
784 332
882 332
1089 332
1130 332
1328 332
1834 332
1880 332
1951 332
349 333
389 333
407 333
653 333
666 333
816 333
929 333
975 333
1007 333
1068 333
1245 333
1274 333
1769 333
1874 333
1985 333
364 334
495 334
666 334
685 334
803 334
850 334
930 334
1027 334
1085 334
1105 334
1139 334
1557 334
1653 334
1684 334
1987 334
629 335
772 335
945 335
1005 335
1057 335
1104 335
1136 335
1237 335
1502 335
1607 335
1635 335
1723 335
1751 335
1939 335
620 336
755 336
890 336
945 336
960 336
984 336
994 336
1096 336
1154 336
1162 336
1254 336
1302 336
1521 336
1617 336
1816 336
1923 336
510 337
517 337
567 337
709 337
783 337
841 337
881 337
946 337
1133 337
1239 337
1240 337
1280 337
1620 337
1729 337
1759 337
1781 337
1810 337
382 338
473 338
599 338
892 338
953 338
956 338
1130 338
1232 338
1311 338
1316 338
1342 338
1418 338
1445 338
1568 338
1721 338
1753 338
1759 338
1771 338
1884 338
355 339
417 339
539 339
735 339
915 339
1225 339
1298 339
1307 339
1353 339
1553 339
1820 339
1825 339
387 340
493 340
509 340
549 340
551 340
799 340
973 340
1062 340
1266 340
1267 340
1309 340
1353 340
1407 340
1793 340
1800 340
1827 340
1877 340
1890 340
1909 340
1913 340
615 341
647 341
694 341
753 341
828 341
839 341
928 341
935 341
1040 341
1065 341
1090 341
1196 341
1469 341
1693 341
1725 341
1781 341
1809 341
460 342
506 342
527 342
589 342
749 342
831 342
942 342
946 342
962 342
1117 342
1128 342
1474 342
1521 342
1646 342
1750 342
1877 342
1989 342
665 343
706 343
927 343
979 343
1026 343
1046 343
1098 343
1160 343
1236 343
1339 343
1648 343
1680 343
1785 343
1947 343
1963 343
349 344
393 344
606 344
757 344
885 344
905 344
1016 344
1052 344
1093 344
1198 344
1557 344
1563 344
1641 344
1666 344
1730 344
382 345
461 345
498 345
547 345
660 345
803 345
839 345
956 345
1140 345
1141 345
1463 345
1609 345
1660 345
1669 345
1917 345
379 346
422 346
804 346
806 346
807 346
1030 346
1047 346
1274 346
1344 346
1355 346
1357 346
1424 346
1442 346
1455 346
1784 346
1843 346
1860 346
1867 346
1943 346
366 347
525 347
606 347
704 347
754 347
904 347
950 347
1403 347
1422 347
1685 347
1956 347
586 348
669 348
768 348
774 348
894 348
927 348
965 348
1087 348
1089 348
1099 348
1361 348
1399 348
1462 348
1536 348
1591 348
1593 348
1620 348
1662 348
1760 348
1880 348
1897 348
1953 348
421 349
680 349
1052 349
1072 349
1086 349
1136 349
1364 349
1485 349
1526 349
1563 349
1565 349
1572 349
1773 349
1869 349
1981 349
1991 349
638 350
690 350
901 350
1270 350
1427 350
1587 350
1772 350
398 351
411 351
530 351
863 351
1022 351
1033 351
1100 351
1113 351
1114 351
1161 351
1173 351
1396 351
1568 351
1594 351
1896 351
838 352
1091 352
1230 352
1308 352
1676 352
1835 352
1891 352
1938 352
359 353
373 353
390 353
430 353
589 353
734 353
762 353
800 353
903 353
972 353
1096 353
1101 353
1140 353
1180 353
1225 353
1285 353
1402 353
1732 353
1876 353
547 354
681 354
740 354
806 354
914 354
952 354
1178 354
1196 354
1255 354
1287 354
1330 354
1339 354
1719 354
1740 354
1824 354
540 355
649 355
747 355
830 355
1037 355
1279 355
1312 355
1391 355
1426 355
1496 355
1512 355
1542 355
1647 355
1867 355
1938 355
1959 355
783 356
911 356
918 356
929 356
1173 356
1195 356
1335 356
1345 356
1595 356
1605 356
1674 356
1691 356
1721 356
1766 356
1793 356
1905 356
426 357
503 357
508 357
599 357
614 357
618 357
638 357
684 357
708 357
748 357
832 357
882 357
964 357
1072 357
1127 357
1129 357
1189 357
1207 357
1393 357
1570 357
1880 357
481 358
614 358
633 358
692 358
929 358
969 358
1004 358
1249 358
1262 358
1412 358
1530 358
1663 358
1737 358
1915 358
1971 358
554 359
925 359
1041 359
1201 359
1468 359
1657 359
1707 359
1792 359
1939 359
367 360
465 360
514 360
678 360
700 360
974 360
1033 360
1233 360
1294 360
1306 360
1396 360
1454 360
1529 360
1601 360
1809 360
1864 360
995 361
1009 361
1273 361
1284 361
1605 361
1808 361
1839 361
659 362
836 362
857 362
1106 362
1480 362
1670 362
1870 362
1998 362
486 363
558 363
722 363
842 363
865 363
917 363
958 363
1000 363
1021 363
1091 363
1143 363
1228 363
1252 363
1344 363
1442 363
1496 363
1701 363
390 364
431 364
440 364
537 364
552 364
617 364
690 364
708 364
1011 364
1014 364
1092 364
1238 364
1314 364
1348 364
1395 364
1426 364
1602 364
1732 364
1740 364
1928 364
1932 364
379 365
441 365
453 365
682 365
684 365
726 365
926 365
952 365
964 365
971 365
1183 365
1210 365
1221 365
1432 365
1435 365
1475 365
1477 365
1512 365
1553 365
1691 365
1735 365
1810 365
1955 365
1961 365
488 366
647 366
735 366
763 366
782 366
795 366
994 366
1164 366
1256 366
1305 366
1324 366
1460 366
1519 366
1660 366
1717 366
1795 366
1959 366
1962 366
614 367
688 367
707 367
732 367
891 367
918 367
992 367
1041 367
1119 367
1165 367
1273 367
1278 367
1319 367
1499 367
1521 367
1753 367
1895 367
457 368
528 368
742 368
838 368
1044 368
1257 368
1294 368
1301 368
1400 368
1566 368
1718 368
1810 368
1839 368
2000 368
609 369
663 369
681 369
898 369
1147 369
1179 369
1192 369
1390 369
1401 369
1634 369
1730 369
1846 369
1978 369
1987 369
380 370
395 370
498 370
556 370
626 370
713 370
972 370
980 370
984 370
1165 370
1275 370
1305 370
1404 370
1438 370
1455 370
1466 370
1862 370
1899 370
1947 370
1999 370
442 371
501 371
519 371
573 371
579 371
587 371
819 371
890 371
965 371
1401 371
1453 371
1648 371
1886 371
1888 371
759 372
780 372
1186 372
1231 372
1299 372
1431 372
1452 372
1884 372
1924 372
387 373
388 373
406 373
530 373
585 373
958 373
1095 373
1188 373
1226 373
1253 373
1440 373
1494 373
1624 373
1705 373
1815 373
1828 373
1926 373
413 374
579 374
635 374
718 374
775 374
799 374
812 374
914 374
923 374
1155 374
1219 374
1732 374
1791 374
503 375
593 375
787 375
851 375
906 375
983 375
1091 375
1112 375
1349 375
1351 375
1357 375
1394 375
1440 375
1509 375
1678 375
1813 375
1896 375
1968 375
423 376
479 376
503 376
531 376
587 376
774 376
777 376
979 376
980 376
1112 376
1146 376
1148 376
1209 376
1398 376
1725 376
1780 376
1818 376
1857 376
1888 376
1946 376
538 377
783 377
811 377
846 377
911 377
942 377
1061 377
1297 377
1306 377
1453 377
1489 377
1555 377
1566 377
1644 377
1753 377
1792 377
1823 377
396 378
402 378
445 378
594 378
607 378
634 378
848 378
978 378
993 378
1142 378
1152 378
1228 378
1262 378
1338 378
1390 378
1489 378
1560 378
1647 378
1659 378
1683 378
1694 378
1713 378
436 379
554 379
720 379
812 379
893 379
912 379
918 379
1042 379
1142 379
1236 379
1248 379
1424 379
1661 379
1700 379
1907 379
1929 379
533 380
559 380
640 380
712 380
777 380
876 380
1339 380
1348 380
1428 380
1429 380
1473 380
1567 380
1576 380
1603 380
1618 380
1795 380
536 381
686 381
731 381
749 381
870 381
937 381
1025 381
1138 381
1149 381
1155 381
1324 381
1522 381
1527 381
1552 381
1597 381
1601 381
1632 381
1639 381
1680 381
1729 381
1740 381
1819 381
1843 381
1950 381
1956 381
602 382
720 382
783 382
978 382
1092 382
1124 382
1149 382
1326 382
1434 382
1578 382
639 383
655 383
720 383
755 383
1051 383
1264 383
1394 383
1409 383
1410 383
1482 383
1516 383
1527 383
1590 383
1780 383
1910 383
484 384
813 384
898 384
974 384
1008 384
1222 384
1489 384
1505 384
1727 384
1875 384
1921 384
1971 384
432 385
472 385
509 385
538 385
574 385
576 385
592 385
613 385
763 385
839 385
852 385
937 385
1030 385
1057 385
1102 385
1223 385
1419 385
1433 385
1487 385
539 386
774 386
797 386
867 386
934 386
946 386
1092 386
1228 386
1275 386
1356 386
1359 386
1396 386
1401 386
1466 386
1549 386
1630 386
1833 386
1912 386
1947 386
1970 386
1984 386
394 387
403 387
611 387
618 387
642 387
725 387
763 387
892 387
1002 387
1004 387
1255 387
1267 387
1349 387
1390 387
1433 387
1483 387
1521 387
1639 387
1669 387
1737 387
1832 387
1924 387
468 388
551 388
578 388
752 388
998 388
1128 388
1366 388
1440 388
1572 388
1640 388
1641 388
1713 388
1730 388
1890 388
1932 388
1957 388
420 389
627 389
1001 389
1009 389
1111 389
1154 389
1343 389
1479 389
1603 389
1610 389
1612 389
1728 389
1729 389
1870 389
1917 389
1921 389
1958 389
1959 389
1983 389
397 390
480 390
532 390
616 390
641 390
829 390
965 390
990 390
1163 390
1167 390
1340 390
1523 390
1553 390
1559 390
1598 390
1698 390
1738 390
1787 390
1943 390
404 391
573 391
574 391
760 391
771 391
772 391
901 391
937 391
1053 391
1113 391
1120 391
1245 391
1504 391
1594 391
1726 391
749 392
897 392
905 392
924 392
1397 392
1425 392
1586 392
1614 392
1643 392
1781 392
1883 392
544 393
628 393
923 393
984 393
989 393
1115 393
1314 393
1391 393
1497 393
1622 393
1811 393
1830 393
1926 393
650 394
665 394
692 394
730 394
745 394
1199 394
1292 394
1305 394
1321 394
1435 394
1584 394
1640 394
1715 394
1857 394
1875 394
1887 394
470 395
633 395
788 395
1149 395
1190 395
1251 395
1436 395
1461 395
1566 395
1682 395
1893 395
666 396
748 396
881 396
943 396
954 396
971 396
1034 396
1073 396
1149 396
1299 396
1329 396
1335 396
1422 396
1477 396
1512 396
1515 396
1540 396
1575 396
1619 396
1725 396
1785 396
555 397
582 397
720 397
826 397
1066 397
1276 397
1325 397
1370 397
1504 397
1532 397
1571 397
1704 397
1802 397
635 398
705 398
736 398
766 398
790 398
811 398
899 398
964 398
991 398
1002 398
1032 398
1147 398
1513 398
1536 398
1552 398
1605 398
1710 398
1837 398
1929 398
1982 398
1989 398
415 399
482 399
550 399
572 399
794 399
874 399
990 399
1021 399
1054 399
1350 399
1371 399
1379 399
1399 399
1467 399
1522 399
1536 399
1754 399
1851 399
1906 399
424 400
642 400
730 400
816 400
880 400
895 400
937 400
1389 400
1547 400
1554 400
1625 400
505 401
524 401
548 401
797 401
825 401
853 401
894 401
912 401
996 401
1001 401
1166 401
1276 401
1300 401
1386 401
1457 401
1491 401
1859 401
1876 401
1898 401
1941 401
1983 401
1984 401
475 402
588 402
858 402
872 402
954 402
995 402
1045 402
1132 402
1171 402
1264 402
1396 402
1630 402
1668 402
1748 402
1777 402
1823 402
1938 402
493 403
1580 403
1639 403
1753 403
1821 403
1833 403
1857 403
446 404
462 404
513 404
553 404
754 404
927 404
954 404
1038 404
1057 404
1082 404
1186 404
1269 404
1334 404
1489 404
1575 404
1600 404
1736 404
1863 404
1878 404
1969 404
518 405
529 405
537 405
624 405
788 405
848 405
898 405
939 405
951 405
1072 405
1206 405
1247 405
1304 405
1336 405
1414 405
1676 405
1897 405
1899 405
427 406
515 406
540 406
845 406
1134 406
1298 406
1458 406
1537 406
1616 406
1630 406
1783 406
1851 406
1870 406
451 407
847 407
858 407
899 407
985 407
1004 407
1203 407
1406 407
1491 407
1581 407
1733 407
1776 407
1807 407
1941 407
434 408
458 408
491 408
513 408
626 408
631 408
639 408
699 408
773 408
924 408
1233 408
1305 408
1561 408
1565 408
1719 408
1775 408
1776 408
1850 408
1853 408
1857 408
1987 408
502 409
534 409
705 409
951 409
1041 409
1067 409
1140 409
1218 409
1374 409
1811 409
1872 409
1921 409
509 410
545 410
551 410
557 410
900 410
1132 410
1222 410
1243 410
1286 410
1294 410
1318 410
1380 410
1512 410
1891 410
1961 410
414 411
448 411
539 411
638 411
1037 411
1058 411
1166 411
1245 411
1296 411
1363 411
1373 411
1511 411
1781 411
1874 411
1883 411
775 412
938 412
961 412
1004 412
1042 412
1245 412
1255 412
1285 412
1411 412
1646 412
1768 412
1779 412
1885 412
1901 412
1993 412
524 413
714 413
746 413
807 413
971 413
1144 413
1296 413
1352 413
1574 413
1696 413
1725 413
1817 413
1846 413
1870 413
1950 413
1965 413
1991 413
816 414
933 414
942 414
1015 414
1040 414
1163 414
1181 414
1220 414
1481 414
1599 414
1668 414
1781 414
448 415
789 415
899 415
934 415
996 415
1074 415
1240 415
1246 415
1752 415
1811 415
1862 415
770 416
838 416
856 416
1058 416
1100 416
1116 416
1145 416
1276 416
1436 416
1494 416
1508 416
1545 416
1852 416
1895 416
1937 416
432 417
619 417
649 417
687 417
749 417
911 417
922 417
942 417
951 417
1180 417
1214 417
1272 417
1482 417
1488 417
1575 417
1585 417
1601 417
1655 417
1690 417
515 418
544 418
571 418
609 418
620 418
696 418
1208 418
1290 418
1362 418
1543 418
1723 418
1775 418
422 419
933 419
951 419
955 419
1015 419
1066 419
1196 419
1293 419
1364 419
1393 419
1444 419
1505 419
1588 419
1590 419
1599 419
1686 419
1939 419
1988 419
473 420
592 420
609 420
782 420
893 420
1149 420
1175 420
1199 420
1218 420
1271 420
1307 420
1340 420
1367 420
1369 420
1373 420
1586 420
1667 420
1741 420
1766 420
1825 420
1959 420
544 421
574 421
588 421
904 421
935 421
1270 421
1324 421
1355 421
1447 421
1640 421
1747 421
1854 421
519 422
544 422
937 422
963 422
1046 422
1086 422
1115 422
1391 422
1515 422
1520 422
1677 422
1700 422
1704 422
1714 422
1764 422
1965 422
437 423
524 423
587 423
673 423
686 423
733 423
847 423
873 423
926 423
1031 423
1064 423
1112 423
1119 423
1120 423
1124 423
1219 423
1302 423
1328 423
1341 423
1376 423
1405 423
1423 423
1448 423
1472 423
1532 423
1581 423
1931 423
479 424
496 424
505 424
535 424
626 424
804 424
941 424
1023 424
1122 424
1176 424
1255 424
1331 424
1460 424
1512 424
1623 424
1680 424
1706 424
1984 424
1996 424
436 425
463 425
475 425
522 425
544 425
652 425
657 425
678 425
893 425
928 425
1045 425
1088 425
1117 425
1155 425
1378 425
1406 425
1601 425
1748 425
1950 425
548 426
556 426
816 426
961 426
988 426
1065 426
1353 426
1447 426
1543 426
1579 426
1722 426
1891 426
1969 426
525 427
560 427
579 427
632 427
714 427
731 427
893 427
914 427
984 427
1164 427
1564 427
1664 427
1750 427
1752 427
1754 427
1778 427
706 428
822 428
1099 428
1208 428
1216 428
1301 428
1332 428
1346 428
1428 428
1496 428
1497 428
1504 428
1560 428
1726 428
1750 428
1781 428
1824 428
1968 428
475 429
480 429
518 429
598 429
658 429
776 429
850 429
942 429
1157 429
1164 429
1240 429
1264 429
1329 429
1446 429
1484 429
1718 429
1722 429
1820 429
1850 429
455 430
482 430
570 430
594 430
670 430
685 430
737 430
781 430
844 430
903 430
968 430
1045 430
1088 430
1199 430
1557 430
1703 430
1751 430
1839 430
1902 430
1926 430
500 431
516 431
623 431
1060 431
1070 431
1103 431
1230 431
1290 431
1320 431
1356 431
1546 431
1613 431
1626 431
1714 431
1733 431
1793 431
1917 431
1931 431
1932 431
528 432
654 432
669 432
720 432
790 432
793 432
806 432
895 432
958 432
1002 432
1218 432
1282 432
1336 432
1352 432
1456 432
1485 432
1678 432
1776 432
1819 432
1851 432
1879 432
1894 432
1915 432
1919 432
434 433
561 433
923 433
1381 433
1422 433
1443 433
1849 433
1917 433
729 434
756 434
789 434
832 434
1083 434
1230 434
1276 434
1278 434
1396 434
1414 434
1419 434
1427 434
1449 434
1475 434
1503 434
1592 434
1624 434
1853 434
481 435
630 435
633 435
650 435
826 435
916 435
1033 435
1052 435
1262 435
1284 435
1304 435
1475 435
1524 435
1546 435
1735 435
1737 435
1811 435
1865 435
1869 435
1951 435
1998 435
599 436
632 436
688 436
926 436
961 436
1024 436
1054 436
1079 436
1249 436
1287 436
1316 436
1450 436
1480 436
1618 436
1911 436
456 437
481 437
546 437
662 437
745 437
809 437
939 437
951 437
1035 437
1094 437
1201 437
1236 437
1270 437
1381 437
1810 437
1830 437
1863 437
1940 437
1982 437
518 438
645 438
841 438
938 438
947 438
1091 438
1329 438
1380 438
1388 438
1449 438
1451 438
1576 438
1614 438
1697 438
1706 438
1792 438
1939 438
1959 438
440 439
547 439
587 439
626 439
637 439
795 439
1290 439
1332 439
1583 439
1630 439
1922 439
1993 439
522 440
532 440
554 440
612 440
828 440
865 440
950 440
963 440
964 440
1107 440
1159 440
1259 440
1405 440
1461 440
1493 440
1528 440
1650 440
1651 440
1958 440
649 441
806 441
868 441
905 441
1161 441
1186 441
1340 441
1550 441
1566 441
1605 441
1712 441
1728 441
1749 441
1769 441
1877 441
577 442
645 442
821 442
918 442
1050 442
1053 442
1317 442
1438 442
1661 442
1808 442
1814 442
1860 442
1977 442
472 443
633 443
727 443
923 443
961 443
984 443
1022 443
1263 443
1537 443
1611 443
1742 443
1799 443
1832 443
652 444
751 444
805 444
848 444
886 444
980 444
1055 444
1302 444
1388 444
1639 444
1819 444
1856 444
1928 444
492 445
843 445
850 445
888 445
1070 445
1103 445
1140 445
1162 445
1376 445
1474 445
1544 445
1547 445
1630 445
1694 445
1830 445
1855 445
1863 445
1902 445
1914 445
1917 445
544 446
717 446
934 446
974 446
991 446
1013 446
1144 446
1340 446
1443 446
1639 446
1649 446
1909 446
1980 446
492 447
540 447
566 447
570 447
857 447
890 447
911 447
1184 447
1229 447
1293 447
1350 447
1353 447
1366 447
1370 447
1432 447
1459 447
1529 447
1532 447
1691 447
1782 447
1809 447
1848 447
1874 447
1922 447
1944 447
769 448
1046 448
1278 448
1304 448
1350 448
1429 448
1638 448
1760 448
1796 448
541 449
591 449
744 449
817 449
972 449
1342 449
1352 449
1477 449
1990 449
504 450
509 450
566 450
700 450
756 450
794 450
828 450
991 450
1039 450
1269 450
1333 450
1998 450
471 451
533 451
567 451
625 451
636 451
645 451
734 451
751 451
777 451
896 451
958 451
963 451
1006 451
1045 451
1502 451
1560 451
1581 451
1617 451
1637 451
1640 451
1649 451
1776 451
622 452
759 452
784 452
866 452
870 452
894 452
896 452
976 452
1047 452
1063 452
1297 452
1475 452
1826 452
463 453
469 453
482 453
511 453
563 453
564 453
646 453
816 453
898 453
964 453
967 453
979 453
1110 453
1129 453
1195 453
1269 453
1274 453
1400 453
1576 453
1655 453
1719 453
1757 453
1760 453
1771 453
1794 453
1821 453
1904 453
1910 453
1927 453
1958 453
1978 453
526 454
611 454
767 454
782 454
861 454
907 454
959 454
1006 454
1145 454
1153 454
1161 454
1357 454
1510 454
1567 454
1639 454
1650 454
1754 454
1772 454
1816 454
637 455
822 455
836 455
981 455
1030 455
1067 455
1243 455
1270 455
1408 455
1456 455
1497 455
1562 455
1607 455
1702 455
1799 455
475 456
542 456
569 456
651 456
829 456
1600 456
1963 456
468 457
545 457
624 457
741 457
748 457
862 457
873 457
1176 457
1237 457
1513 457
1735 457
1741 457
1799 457
1824 457
1853 457
1973 457
542 458
578 458
608 458
664 458
795 458
813 458
1066 458
1127 458
1144 458
1231 458
1294 458
1321 458
1338 458
1363 458
1390 458
1418 458
1481 458
1594 458
1723 458
1754 458
1848 458
1917 458
1941 458
1975 458
561 459
658 459
752 459
798 459
888 459
1082 459
1113 459
1183 459
1270 459
1350 459
1384 459
1469 459
1549 459
1758 459
1909 459
1928 459
461 460
512 460
717 460
881 460
903 460
1165 460
1189 460
1242 460
1325 460
1337 460
1370 460
1384 460
1614 460
1691 460
1698 460
1831 460
1906 460
1929 460
1941 460
1978 460
568 461
787 461
789 461
797 461
833 461
1002 461
1141 461
1215 461
1378 461
1397 461
1443 461
1632 461
1661 461
1904 461
1914 461
1968 461
540 462
625 462
763 462
913 462
1103 462
1231 462
1431 462
1462 462
1658 462
1760 462
1901 462
1905 462
1930 462
467 463
490 463
644 463
661 463
852 463
1000 463
1047 463
1127 463
1252 463
1298 463
1334 463
1373 463
1496 463
1505 463
1629 463
1664 463
1689 463
1869 463
1887 463
599 464
653 464
716 464
876 464
899 464
1165 464
1188 464
1201 464
1205 464
1274 464
1344 464
1473 464
1639 464
1847 464
1894 464
1956 464
677 465
693 465
1118 465
1131 465
1210 465
1254 465
1323 465
1365 465
1574 465
1640 465
1720 465
1730 465
1749 465
1772 465
1797 465
1806 465
600 466
713 466
821 466
920 466
1018 466
1021 466
1109 466
1130 466
1216 466
1310 466
1613 466
1694 466
1903 466
1998 466
480 467
483 467
549 467
563 467
595 467
612 467
796 467
933 467
1279 467
1341 467
1423 467
1441 467
1579 467
1588 467
1592 467
1733 467
1796 467
1914 467
1990 467
578 468
686 468
730 468
902 468
977 468
989 468
1195 468
1301 468
1341 468
1364 468
1599 468
1604 468
1760 468
1800 468
1805 468
1839 468
517 469
568 469
571 469
595 469
630 469
881 469
915 469
1033 469
1044 469
1259 469
1453 469
1462 469
1550 469
1563 469
1681 469
1726 469
732 470
854 470
1329 470
1354 470
1460 470
1786 470
666 471
698 471
709 471
863 471
906 471
910 471
933 471
1337 471
1457 471
1605 471
1722 471
1847 471
1886 471
529 472
541 472
625 472
634 472
700 472
849 472
909 472
1090 472
1329 472
1560 472
1561 472
1634 472
1677 472
1721 472
1886 472
1963 472
507 473
565 473
615 473
647 473
720 473
981 473
1115 473
1180 473
1445 473
1507 473
1537 473
1828 473
1899 473
495 474
517 474
595 474
616 474
660 474
676 474
682 474
707 474
766 474
791 474
855 474
910 474
985 474
1142 474
1429 474
1503 474
1622 474
1713 474
1716 474
1808 474
1826 474
1884 474
1926 474
1994 474
1995 474
526 475
703 475
1066 475
1089 475
1092 475
1111 475
1361 475
1366 475
1373 475
1417 475
1438 475
1594 475
1717 475
1870 475
1890 475
1935 475
479 476
482 476
521 476
553 476
711 476
824 476
1033 476
1433 476
1716 476
1856 476
1957 476
1959 476
484 477
524 477
582 477
657 477
667 477
1040 477
1248 477
1276 477
1320 477
1406 477
1487 477
1492 477
1505 477
1591 477
1703 477
1796 477
1869 477
1887 477
1940 477
1967 477
544 478
570 478
691 478
819 478
1129 478
1351 478
1410 478
1466 478
1494 478
1762 478
1773 478
1791 478
1956 478
523 479
597 479
738 479
1343 479
1366 479
1656 479
1838 479
1845 479
1869 479
545 480
591 480
620 480
630 480
686 480
850 480
864 480
965 480
1007 480
1200 480
1250 480
1309 480
1504 480
1697 480
1714 480
1736 480
1771 480
1828 480
1849 480
1981 480
526 481
722 481
861 481
923 481
941 481
1083 481
1248 481
1276 481
1329 481
1444 481
1482 481
1483 481
1714 481
1741 481
1774 481
1796 481
1803 481
797 482
844 482
876 482
968 482
969 482
1315 482
1340 482
1357 482
1438 482
1442 482
1444 482
1517 482
1586 482
1801 482
1868 482
616 483
645 483
648 483
793 483
877 483
879 483
1074 483
1242 483
1399 483
1587 483
1599 483
1619 483
1694 483
1814 483
1941 483
1964 483
507 484
541 484
602 484
698 484
729 484
954 484
975 484
1003 484
1082 484
1878 484
616 485
625 485
657 485
903 485
1072 485
1092 485
1185 485
1199 485
1322 485
1366 485
1502 485
1635 485
1671 485
1722 485
1769 485
1830 485
1846 485
1877 485
1916 485
1923 485
1939 485
2000 485
551 486
552 486
614 486
804 486
1030 486
1036 486
1205 486
1364 486
1431 486
1498 486
1803 486
541 487
647 487
662 487
727 487
841 487
877 487
1194 487
1217 487
1259 487
1277 487
1283 487
1379 487
1424 487
1503 487
1511 487
1527 487
1595 487
1719 487
1724 487
1765 487
2000 487
498 488
533 488
566 488
697 488
774 488
918 488
1001 488
1043 488
1128 488
1162 488
1469 488
1579 488
1696 488
1993 488
490 489
501 489
539 489
594 489
675 489
832 489
849 489
937 489
1110 489
1199 489
1202 489
1235 489
1386 489
1496 489
1613 489
1882 489
505 490
1127 490
1207 490
1302 490
1305 490
1307 490
1608 490
1673 490
1732 490
1850 490
1859 490
1904 490
1922 490
1961 490
1975 490
1986 490
508 491
525 491
582 491
612 491
633 491
655 491
680 491
907 491
967 491
1120 491
1339 491
1356 491
1398 491
1402 491
1409 491
1656 491
1664 491
1949 491
551 492
617 492
630 492
703 492
770 492
852 492
871 492
1255 492
1311 492
1345 492
1440 492
1673 492
1903 492
810 493
1162 493
1202 493
1337 493
1403 493
1522 493
1667 493
1674 493
1824 493
608 494
664 494
785 494
847 494
948 494
982 494
1038 494
1069 494
1091 494
1092 494
1122 494
1180 494
1311 494
1327 494
1437 494
1572 494
1683 494
1687 494
1722 494
1855 494
496 495
536 495
561 495
677 495
774 495
906 495
945 495
1120 495
1313 495
1329 495
1421 495
1552 495
1567 495
1572 495
1688 495
1751 495
1762 495
719 496
740 496
827 496
936 496
1005 496
1179 496
1341 496
1532 496
1636 496
1738 496
1854 496
595 497
650 497
662 497
770 497
827 497
1198 497
1255 497
1405 497
1423 497
1479 497
1788 497
1848 497
1883 497
1924 497
673 498
880 498
924 498
993 498
1028 498
1040 498
1075 498
1148 498
1340 498
1401 498
1687 498
1708 498
1731 498
1780 498
1858 498
1925 498
517 499
524 499
641 499
656 499
743 499
1055 499
1097 499
1183 499
1226 499
1347 499
1357 499
1379 499
1399 499
1427 499
1740 499
1828 499
1833 499
530 500
636 500
656 500
848 500
944 500
1004 500
1044 500
1081 500
1128 500
1190 500
1235 500
1360 500
1597 500
1628 500
1649 500
1719 500
1991 500
527 501
554 501
714 501
766 501
791 501
871 501
1120 501
1295 501
1346 501
1441 501
1534 501
1694 501
581 502
660 502
727 502
779 502
1217 502
1275 502
1508 502
1527 502
1574 502
1578 502
1683 502
1696 502
1726 502
1789 502
1821 502
1837 502
813 503
821 503
1008 503
1061 503
1095 503
1101 503
1301 503
1405 503
1536 503
1743 503
1901 503
1920 503
588 504
684 504
796 504
843 504
941 504
1030 504
1059 504
1170 504
1224 504
1546 504
1578 504
1634 504
1682 504
1801 504
1831 504
1883 504
1947 504
1989 504
722 505
760 505
834 505
883 505
969 505
982 505
1101 505
1220 505
1291 505
1292 505
1376 505
1560 505
1711 505
517 506
685 506
688 506
840 506
946 506
959 506
977 506
1163 506
1195 506
1353 506
1443 506
1576 506
1604 506
1646 506
557 507
595 507
613 507
643 507
725 507
899 507
1119 507
1286 507
1401 507
1474 507
1479 507
1542 507
1574 507
1607 507
1667 507
1679 507
603 508
641 508
736 508
872 508
1014 508
1092 508
1096 508
1107 508
1110 508
1381 508
1575 508
1658 508
1681 508
1691 508
1883 508
548 509
556 509
705 509
743 509
879 509
982 509
1107 509
1278 509
1351 509
1509 509
1672 509
1711 509
1751 509
1752 509
1854 509
1859 509
1889 509
1893 509
1931 509
1940 509
577 510
622 510
736 510
772 510
868 510
960 510
1044 510
1070 510
1111 510
1216 510
1341 510
566 511
762 511
790 511
884 511
938 511
1084 511
1377 511
1496 511
1573 511
1644 511
1779 511
1808 511
1835 511
1894 511
1931 511
562 512
776 512
827 512
1102 512
1290 512
1305 512
1327 512
1573 512
1594 512
1638 512
1651 512
1713 512
1716 512
1743 512
1795 512
1803 512
1873 512
681 513
787 513
816 513
1195 513
1231 513
1357 513
1403 513
1705 513
1809 513
1816 513
515 514
644 514
752 514
908 514
924 514
973 514
981 514
997 514
1225 514
1680 514
1905 514
563 515
699 515
714 515
784 515
786 515
791 515
894 515
937 515
941 515
1064 515
1274 515
1409 515
1416 515
1478 515
1709 515
1755 515
1860 515
1982 515
592 516
996 516
1107 516
1177 516
1275 516
1356 516
1475 516
1519 516
1635 516
1704 516
1831 516
1965 516
608 517
898 517
998 517
1009 517
1022 517
1358 517
1543 517
1552 517
1571 517
1588 517
1741 517
1746 517
1793 517
1932 517
546 518
859 518
1022 518
1247 518
1278 518
1348 518
1411 518
1571 518
1588 518
1596 518
1696 518
1706 518
1756 518
1891 518
1937 518
651 519
679 519
770 519
795 519
958 519
998 519
1379 519
1570 519
1655 519
1666 519
1982 519
761 520
802 520
963 520
1006 520
1032 520
1183 520
1306 520
1416 520
1445 520
1532 520
1637 520
1691 520
1734 520
1757 520
1830 520
1847 520
1889 520
540 521
563 521
636 521
726 521
838 521
919 521
1004 521
1025 521
1034 521
1201 521
1361 521
1477 521
1648 521
1653 521
1678 521
1686 521
1763 521
1812 521
620 522
629 522
713 522
940 522
954 522
1039 522
1057 522
1153 522
1165 522
1238 522
1564 522
1631 522
1683 522
1768 522
1803 522
1807 522
1946 522
570 523
665 523
801 523
821 523
1000 523
1243 523
1327 523
1433 523
1484 523
1558 523
1847 523
1960 523
671 524
1046 524
1596 524
1672 524
1748 524
1751 524
1878 524
1943 524
546 525
688 525
979 525
981 525
996 525
1088 525
1110 525
1291 525
1340 525
1344 525
1642 525
1723 525
1840 525
1964 525
527 526
581 526
637 526
1036 526
1121 526
1293 526
1377 526
1390 526
1462 526
1482 526
1527 526
1535 526
1656 526
1817 526
1890 526
1989 526
535 527
639 527
832 527
1098 527
1127 527
1229 527
1356 527
1366 527
1560 527
1965 527
692 528
828 528
911 528
957 528
962 528
1017 528
1066 528
1231 528
1347 528
1376 528
1503 528
1505 528
1621 528
1670 528
577 529
698 529
704 529
748 529
789 529
797 529
823 529
1021 529
1034 529
1108 529
1123 529
1194 529
1285 529
1286 529
1315 529
1536 529
1552 529
1639 529
1857 529
1905 529
1913 529
1915 529
538 530
565 530
581 530
626 530
914 530
1069 530
1075 530
1139 530
1319 530
1429 530
1494 530
1506 530
1583 530
1599 530
1643 530
1654 530
1692 530
1707 530
1866 530
552 531
588 531
714 531
937 531
1045 531
1065 531
1177 531
1179 531
1223 531
1315 531
1394 531
1400 531
1506 531
1604 531
664 532
689 532
737 532
747 532
977 532
982 532
990 532
1295 532
1321 532
1394 532
1522 532
1528 532
1535 532
1617 532
1781 532
1797 532
1802 532
1829 532
1861 532
1986 532
1991 532
650 533
661 533
1067 533
1076 533
1207 533
1321 533
1526 533
1592 533
1636 533
1662 533
1680 533
1728 533
1753 533
1797 533
1919 533
1943 533
547 534
702 534
773 534
778 534
827 534
1004 534
1140 534
1143 534
1387 534
1410 534
1493 534
1589 534
1615 534
1939 534
1995 534
569 535
603 535
649 535
829 535
956 535
1012 535
1020 535
1057 535
1185 535
1420 535
1711 535
1748 535
1867 535
1871 535
541 536
573 536
588 536
625 536
639 536
662 536
711 536
712 536
842 536
873 536
1056 536
1084 536
1128 536
1218 536
1262 536
1387 536
1468 536
1711 536
1736 536
1814 536
1944 536
1997 536
575 537
625 537
807 537
868 537
1026 537
1062 537
1208 537
1255 537
1272 537
1312 537
1470 537
1515 537
1691 537
1743 537
680 538
793 538
1032 538
1090 538
1132 538
1528 538
1557 538
1570 538
1726 538
1803 538
1847 538
1866 538
1991 538
722 539
724 539
760 539
911 539
1183 539
1201 539
1359 539
587 540
680 540
920 540
931 540
1088 540
1098 540
1266 540
1292 540
1430 540
1623 540
1638 540
1723 540
1734 540
1884 540
1891 540
619 541
635 541
636 541
743 541
891 541
1192 541
1216 541
1262 541
1286 541
1404 541
1459 541
1826 541
1832 541
1887 541
1915 541
687 542
732 542
782 542
860 542
871 542
905 542
925 542
966 542
1031 542
1157 542
1301 542
1317 542
1557 542
1610 542
1826 542
1871 542
559 543
858 543
947 543
1008 543
1177 543
1288 543
1289 543
1302 543
1468 543
1613 543
1693 543
1787 543
1830 543
1998 543
616 544
628 544
653 544
678 544
698 544
923 544
941 544
979 544
1127 544
1265 544
1274 544
1404 544
1416 544
1460 544
1512 544
1636 544
1705 544
1991 544
612 545
846 545
961 545
972 545
1446 545
1761 545
1833 545
1977 545
1995 545
563 546
1023 546
1161 546
1227 546
1290 546
1386 546
1564 546
1665 546
1877 546
1926 546
1968 546
597 547
672 547
685 547
862 547
946 547
967 547
1000 547
1082 547
1261 547
1263 547
1325 547
1435 547
1565 547
1711 547
1744 547
1758 547
1791 547
1859 547
677 548
703 548
704 548
740 548
865 548
887 548
921 548
1007 548
1024 548
1070 548
1233 548
1236 548
1274 548
1295 548
1388 548
1390 548
1418 548
1529 548
1661 548
1669 548
1768 548
1784 548
1863 548
1876 548
1903 548
1987 548
1010 549
1191 549
1196 549
1286 549
1337 549
1391 549
1427 549
1713 549
1982 549
648 550
735 550
768 550
927 550
947 550
1120 550
1439 550
1537 550
1603 550
1673 550
1689 550
1983 550
704 551
777 551
974 551
988 551
1057 551
1087 551
1090 551
1175 551
1199 551
1212 551
1231 551
1424 551
1511 551
1667 551
1710 551
1979 551
557 552
932 552
933 552
953 552
1161 552
1184 552
1270 552
1569 552
1576 552
1630 552
1645 552
1649 552
1823 552
1856 552
1913 552
1929 552
1938 552
572 553
626 553
643 553
657 553
664 553
690 553
854 553
994 553
1005 553
1104 553
1188 553
1256 553
1315 553
1436 553
1591 553
1640 553
1911 553
1947 553
567 554
660 554
674 554
715 554
842 554
873 554
878 554
907 554
1030 554
1118 554
1148 554
1155 554
1284 554
1295 554
1375 554
1385 554
1437 554
1457 554
1462 554
1483 554
1498 554
1514 554
1673 554
1871 554
808 555
1135 555
1798 555
1815 555
1011 556
1156 556
1343 556
1797 556
1861 556
571 557
573 557
688 557
981 557
1219 557
1240 557
1364 557
1379 557
1767 557
1811 557
1874 557
1915 557
735 558
766 558
833 558
865 558
892 558
901 558
984 558
1061 558
1219 558
1258 558
1330 558
1370 558
1574 558
1657 558
1668 558
1762 558
1865 558
1946 558
583 559
832 559
837 559
845 559
954 559
1029 559
1054 559
1458 559
1473 559
1529 559
1536 559
1559 559
1586 559
1830 559
1875 559
1908 559
578 560
691 560
708 560
834 560
874 560
966 560
1013 560
1170 560
1252 560
1258 560
1803 560
1881 560
1890 560
1922 560
850 561
912 561
975 561
1179 561
1249 561
1274 561
1366 561
1372 561
1396 561
1447 561
1492 561
1677 561
1689 561
1729 561
1886 561
899 562
977 562
1089 562
1136 562
1173 562
1344 562
1376 562
1869 562
1886 562
588 563
601 563
624 563
627 563
682 563
768 563
769 563
782 563
1373 563
1439 563
1445 563
1614 563
1786 563
1831 563
1952 563
566 564
732 564
792 564
1000 564
1040 564
1277 564
1345 564
1535 564
1536 564
1614 564
1632 564
1644 564
1668 564
1679 564
1725 564
1733 564
1757 564
1800 564
1987 564
620 565
648 565
657 565
664 565
714 565
777 565
882 565
907 565
947 565
1075 565
1157 565
1223 565
1463 565
1621 565
1674 565
1833 565
1842 565
1864 565
609 566
611 566
673 566
774 566
806 566
892 566
899 566
909 566
965 566
980 566
1063 566
1190 566
1267 566
1285 566
1522 566
1585 566
1615 566
1616 566
1741 566
1843 566
1858 566
1885 566
1906 566
1907 566
592 567
630 567
683 567
700 567
980 567
1027 567
1051 567
1214 567
1441 567
1444 567
1450 567
1481 567
1517 567
1543 567
1576 567
1602 567
1625 567
1830 567
1937 567
1995 567
738 568
895 568
928 568
1018 568
1034 568
1296 568
1451 568
1503 568
1553 568
1664 568
1891 568
1905 568
761 569
798 569
896 569
925 569
1083 569
1255 569
1397 569
1400 569
1479 569
1679 569
1804 569
1825 569
1925 569
685 570
688 570
696 570
969 570
1143 570
1284 570
1348 570
1427 570
1482 570
1680 570
1725 570
1821 570
1906 570
1919 570
1968 570
1983 570
650 571
799 571
945 571
1089 571
1141 571
1145 571
1264 571
1305 571
1571 571
1593 571
1617 571
1744 571
1800 571
1818 571
579 572
720 572
844 572
1029 572
1042 572
1230 572
1250 572
1400 572
1410 572
1463 572
1482 572
1568 572
1575 572
1585 572
1616 572
1726 572
1899 572
1909 572
1933 572
1947 572
1980 572
593 573
648 573
810 573
890 573
1075 573
1110 573
1199 573
1233 573
1251 573
1257 573
1309 573
1552 573
1664 573
1730 573
1831 573
1837 573
1914 573
1983 573
656 574
713 574
825 574
881 574
894 574
914 574
1075 574
1123 574
1271 574
1343 574
1468 574
1501 574
1589 574
1660 574
1666 574
1727 574
1732 574
1763 574
1807 574
1835 574
1838 574
1930 574
1993 574
656 575
851 575
875 575
978 575
990 575
1132 575
1257 575
1333 575
1594 575
1710 575
1815 575
1840 575
1935 575
1975 575
666 576
780 576
882 576
941 576
1005 576
1053 576
1064 576
1217 576
1240 576
1312 576
1520 576
1662 576
590 577
619 577
822 577
869 577
938 577
1101 577
1190 577
1281 577
1286 577
1287 577
1630 577
1640 577
1660 577
1682 577
1746 577
1767 577
1926 577
1990 577
1014 578
1438 578
1673 578
1776 578
612 579
615 579
680 579
719 579
1230 579
1348 579
1358 579
1366 579
1548 579
1637 579
1980 579
822 580
844 580
1022 580
1024 580
1366 580
1378 580
1457 580
1501 580
1572 580
1683 580
1849 580
1869 580
1911 580
1930 580
1983 580
1998 580
733 581
793 581
839 581
1114 581
1230 581
1552 581
1757 581
1938 581
602 582
804 582
877 582
883 582
894 582
943 582
1005 582
1134 582
1142 582
1164 582
1247 582
1249 582
1270 582
1415 582
1417 582
1532 582
1670 582
1792 582
1814 582
1836 582
1962 582
620 583
659 583
727 583
809 583
880 583
1024 583
1050 583
1056 583
1113 583
1221 583
1330 583
1458 583
1731 583
1911 583
704 584
739 584
746 584
765 584
792 584
795 584
856 584
1041 584
1067 584
1134 584
1227 584
1277 584
1286 584
1292 584
1309 584
1357 584
1462 584
1471 584
1641 584
1661 584
1703 584
1723 584
1832 584
1872 584
641 585
683 585
886 585
898 585
900 585
1098 585
1159 585
1274 585
1350 585
1398 585
1515 585
1524 585
1544 585
1774 585
1948 585
1994 585
714 586
800 586
908 586
1094 586
1140 586
1212 586
1311 586
1449 586
853 587
1122 587
1253 587
1263 587
1313 587
1351 587
1437 587
1510 587
1548 587
1803 587
1858 587
1882 587
712 588
1128 588
1168 588
1184 588
1334 588
1364 588
1434 588
1486 588
1707 588
1725 588
1782 588
1812 588
875 589
923 589
947 589
972 589
1004 589
1011 589
1206 589
1620 589
1753 589
1787 589
1911 589
1988 589
1997 589
795 590
832 590
1080 590
1112 590
1254 590
1439 590
1460 590
1471 590
1565 590
1613 590
1663 590
1672 590
1692 590
1929 590
1945 590
1946 590
913 591
985 591
989 591
1078 591
1108 591
1249 591
1279 591
1442 591
1507 591
1651 591
1739 591
1791 591
1850 591
1898 591
1992 591
597 592
717 592
745 592
811 592
843 592
903 592
957 592
1024 592
1025 592
1132 592
1177 592
1224 592
1737 592
1797 592
1954 592
601 593
619 593
718 593
779 593
807 593
810 593
1025 593
1395 593
1540 593
1691 593
1715 593
1897 593
1898 593
600 594
723 594
746 594
770 594
926 594
1118 594
1230 594
1283 594
1408 594
1473 594
1489 594
1543 594
1733 594
746 595
888 595
939 595
980 595
1001 595
1211 595
1355 595
1368 595
1385 595
1403 595
1454 595
1562 595
1675 595
1754 595
1816 595
1899 595
642 596
643 596
715 596
744 596
929 596
1031 596
1041 596
1153 596
1217 596
1222 596
1500 596
1522 596
1567 596
1703 596
1820 596
1861 596
632 597
644 597
668 597
745 597
1009 597
1171 597
1225 597
1396 597
1431 597
1484 597
1600 597
1710 597
1913 597
1967 597
1969 597
639 598
899 598
1008 598
1060 598
1077 598
1125 598
1226 598
1303 598
1454 598
1500 598
1591 598
1621 598
1622 598
1701 598
1744 598
1896 598
1937 598
830 599
965 599
1019 599
1076 599
1151 599
1409 599
1594 599
1652 599
1671 599
620 600
911 600
1106 600
1111 600
1126 600
1232 600
1569 600
1599 600
1895 600
1930 600
720 601
812 601
1014 601
1046 601
1069 601
1150 601
1163 601
1260 601
1354 601
1438 601
1511 601
1528 601
1563 601
1775 601
651 602
788 602
793 602
896 602
908 602
943 602
949 602
1006 602
1010 602
1034 602
1150 602
1188 602
1299 602
1540 602
1630 602
1640 602
1711 602
1751 602
1766 602
776 603
797 603
883 603
936 603
1129 603
1208 603
1286 603
1317 603
1494 603
1851 603
1870 603
1976 603
762 604
989 604
1014 604
1112 604
1316 604
1340 604
1468 604
1611 604
1667 604
1781 604
1916 604
1920 604
1943 604
1971 604
692 605
796 605
820 605
830 605
897 605
1180 605
1337 605
1396 605
1809 605
1972 605
1996 605
686 606
822 606
884 606
927 606
988 606
1002 606
1027 606
1032 606
1041 606
1070 606
1224 606
1461 606
1476 606
1767 606
1856 606
1892 606
793 607
871 607
1024 607
1101 607
1343 607
1403 607
1543 607
1546 607
1600 607
1785 607
1829 607
1847 607
1867 607
974 608
995 608
1084 608
1106 608
1130 608
1223 608
1239 608
1283 608
1335 608
1354 608
1669 608
1831 608
1971 608
614 609
715 609
727 609
863 609
933 609
1059 609
1150 609
1206 609
1218 609
1511 609
1516 609
1525 609
1763 609
1782 609
1996 609
837 610
936 610
941 610
993 610
1183 610
1408 610
1449 610
1531 610
1582 610
1677 610
1790 610
1835 610
1919 610
1960 610
700 611
886 611
990 611
1014 611
1045 611
1063 611
1064 611
1366 611
1518 611
1524 611
1539 611
1569 611
1754 611
1895 611
716 612
831 612
968 612
1082 612
1273 612
1326 612
1379 612
1397 612
1453 612
1503 612
1685 612
1742 612
1861 612
814 613
937 613
994 613
1055 613
1144 613
1307 613
1726 613
1849 613
711 614
715 614
941 614
957 614
1322 614
1325 614
1348 614
1416 614
1578 614
1621 614
1792 614
1810 614
1825 614
1928 614
1943 614
698 615
742 615
752 615
829 615
950 615
952 615
1001 615
1026 615
1306 615
1388 615
1395 615
1407 615
1452 615
1548 615
1570 615
1571 615
1646 615
1658 615
1699 615
1714 615
1944 615
796 616
987 616
991 616
1275 616
1345 616
1368 616
1374 616
1407 616
1604 616
1639 616
1712 616
1725 616
1802 616
1847 616
1888 616
763 617
877 617
1155 617
1247 617
1260 617
1804 617
1821 617
660 618
718 618
817 618
912 618
934 618
986 618
989 618
1022 618
1090 618
1353 618
1412 618
1545 618
1695 618
662 619
709 619
824 619
971 619
1224 619
1247 619
1248 619
1362 619
1451 619
1512 619
1655 619
1788 619
1991 619
926 620
994 620
1160 620
1406 620
1419 620
1540 620
1861 620
770 621
799 621
1025 621
1069 621
1145 621
1277 621
1351 621
1623 621
1653 621
1707 621
1811 621
1972 621
629 622
748 622
796 622
806 622
946 622
966 622
1306 622
1360 622
1465 622
715 623
820 623
846 623
865 623
883 623
1090 623
1220 623
1328 623
1460 623
1539 623
1563 623
1572 623
1678 623
1718 623
1861 623
1937 623
1939 623
687 624
770 624
886 624
967 624
1168 624
1172 624
1237 624
1354 624
1357 624
1385 624
1403 624
1424 624
1490 624
1804 624
1912 624
1919 624
632 625
722 625
1422 625
1483 625
1500 625
1514 625
1518 625
1552 625
1651 625
1831 625
1885 625
657 626
755 626
838 626
855 626
1417 626
1593 626
1600 626
1732 626
1747 626
1776 626
1845 626
743 627
832 627
1072 627
1151 627
1407 627
1470 627
1499 627
1592 627
1616 627
1716 627
1835 627
1843 627
665 628
959 628
1227 628
1256 628
1439 628
1585 628
1607 628
1764 628
1816 628
1865 628
789 629
802 629
852 629
926 629
1001 629
1387 629
1393 629
1694 629
1747 629
1923 629
815 630
1252 630
1375 630
1393 630
1569 630
1692 630
1722 630
1809 630
1818 630
1916 630
1982 630
1993 630
646 631
730 631
1028 631
1071 631
1100 631
1157 631
1220 631
1247 631
1395 631
1625 631
1635 631
1685 631
1830 631
1894 631
781 632
814 632
816 632
872 632
1048 632
1079 632
1250 632
1285 632
1362 632
1804 632
1848 632
1143 633
1226 633
1296 633
1523 633
1689 633
1755 633
1821 633
1995 633
647 634
803 634
825 634
841 634
1119 634
1220 634
1321 634
1633 634
1827 634
1912 634
704 635
728 635
885 635
957 635
975 635
999 635
1003 635
1046 635
1152 635
1189 635
1213 635
1343 635
1619 635
1675 635
729 636
740 636
745 636
835 636
848 636
891 636
961 636
1071 636
1106 636
1135 636
1343 636
1487 636
1520 636
1698 636
1759 636
1817 636
1818 636
657 637
766 637
864 637
964 637
1148 637
1161 637
1202 637
1203 637
1327 637
1670 637
1865 637
1868 637
1899 637
839 638
889 638
948 638
1011 638
1073 638
1362 638
1553 638
1614 638
1708 638
646 639
736 639
753 639
891 639
894 639
1061 639
1091 639
1100 639
1393 639
1403 639
1490 639
1656 639
1857 639
1866 639
1960 639
686 640
688 640
689 640
776 640
913 640
933 640
941 640
977 640
1278 640
1432 640
1792 640
678 641
903 641
977 641
997 641
1421 641
1440 641
1626 641
1697 641
1758 641
650 642
701 642
786 642
931 642
979 642
981 642
992 642
1245 642
1303 642
1307 642
1331 642
1372 642
1421 642
1439 642
1488 642
1506 642
1547 642
1850 642
1859 642
1932 642
1946 642
817 643
853 643
938 643
966 643
1039 643
1094 643
1112 643
1430 643
1446 643
1524 643
1602 643
710 644
747 644
751 644
753 644
764 644
1018 644
1019 644
1044 644
1063 644
1105 644
1195 644
1908 644
1918 644
807 645
815 645
870 645
1068 645
1178 645
1247 645
1262 645
1287 645
1390 645
1532 645
1576 645
1699 645
652 646
678 646
692 646
780 646
826 646
838 646
847 646
925 646
945 646
1017 646
1025 646
1130 646
1181 646
1328 646
1360 646
1529 646
1617 646
1638 646
1697 646
1730 646
1870 646
1886 646
1887 646
1918 646
1978 646
811 647
815 647
1424 647
1501 647
1566 647
1717 647
1775 647
706 648
719 648
798 648
804 648
892 648
920 648
940 648
1114 648
1317 648
1367 648
1517 648
1578 648
1586 648
1593 648
1649 648
1790 648
880 649
896 649
1000 649
1209 649
1239 649
1374 649
1587 649
1660 649
1877 649
1920 649
717 650
736 650
763 650
906 650
1268 650
1479 650
1566 650
1683 650
1732 650
1758 650
1846 650
737 651
756 651
757 651
941 651
970 651
978 651
1021 651
1036 651
1134 651
1485 651
1586 651
1624 651
1650 651
1711 651
1817 651
1899 651
739 652
740 652
793 652
829 652
903 652
1041 652
1107 652
1357 652
1364 652
1454 652
1584 652
1610 652
1620 652
1719 652
1901 652
656 653
755 653
869 653
970 653
1259 653
1452 653
1485 653
1512 653
1578 653
1709 653
1787 653
1853 653
707 654
766 654
883 654
1015 654
1203 654
1220 654
1366 654
1409 654
1466 654
1518 654
1543 654
1645 654
1786 654
1830 654
1883 654
1945 654
1992 654
807 655
832 655
953 655
957 655
968 655
1018 655
1106 655
1530 655
1541 655
1809 655
1911 655
1917 655
848 656
867 656
950 656
1000 656
1080 656
1315 656
1398 656
1468 656
1476 656
1498 656
1571 656
1677 656
1690 656
1727 656
1772 656
1861 656
1915 656
694 657
706 657
716 657
740 657
765 657
782 657
913 657
1079 657
1307 657
1636 657
1916 657
767 658
827 658
897 658
986 658
1027 658
1056 658
1067 658
1103 658
1135 658
1242 658
1315 658
1393 658
1561 658
1618 658
1622 658
865 659
965 659
972 659
976 659
994 659
1023 659
1209 659
1593 659
1646 659
1692 659
1759 659
1851 659
1854 659
720 660
788 660
851 660
1044 660
1099 660
1159 660
1176 660
1283 660
1304 660
1329 660
1395 660
1458 660
1517 660
1549 660
1684 660
1686 660
1798 660
1879 660
1913 660
831 661
934 661
950 661
1363 661
1608 661
1609 661
1644 661
1655 661
1708 661
1851 661
1910 661
770 662
954 662
1022 662
1050 662
1144 662
1237 662
1265 662
1470 662
1693 662
1771 662
1784 662
1790 662
853 663
1052 663
1199 663
1280 663
1291 663
1328 663
1660 663
1749 663
960 664
1164 664
1274 664
1445 664
1523 664
1587 664
1677 664
1755 664
1824 664
1890 664
1933 664
693 665
801 665
1001 665
1159 665
1378 665
1410 665
1417 665
1804 665
1968 665
763 666
807 666
898 666
922 666
931 666
986 666
987 666
1406 666
1423 666
1578 666
1637 666
1807 666
1818 666
1931 666
889 667
1052 667
1194 667
1364 667
1392 667
1402 667
1578 667
1622 667
1630 667
1638 667
1900 667
1976 667
1073 668
1217 668
1228 668
1237 668
1282 668
1324 668
1393 668
1450 668
1502 668
1768 668
1829 668
1918 668
686 669
716 669
761 669
927 669
962 669
1075 669
1523 669
1626 669
1672 669
1762 669
1789 669
1855 669
1913 669
698 670
983 670
1161 670
1444 670
1793 670
1827 670
674 671
723 671
1515 671
1672 671
1923 671
1409 672
1526 672
1603 672
1687 672
1733 672
1773 672
1817 672
1818 672
1842 672
1856 672
793 673
977 673
991 673
1023 673
1066 673
1302 673
1421 673
1448 673
1647 673
1834 673
1997 673
870 674
932 674
971 674
972 674
979 674
1018 674
1177 674
1195 674
1225 674
1353 674
1394 674
1451 674
1736 674
1866 674
1972 674
824 675
984 675
1007 675
1047 675
1109 675
1132 675
1197 675
1228 675
1282 675
1404 675
1533 675
1721 675
1729 675
1732 675
787 676
903 676
1033 676
1111 676
1284 676
1307 676
1525 676
1535 676
1774 676
679 677
803 677
807 677
958 677
992 677
1032 677
1074 677
1109 677
1149 677
1150 677
1240 677
1264 677
1384 677
1485 677
1583 677
1728 677
778 678
895 678
925 678
943 678
962 678
963 678
1051 678
1069 678
1073 678
1144 678
1204 678
1276 678
1373 678
1462 678
1494 678
1721 678
850 679
887 679
924 679
1052 679
1258 679
1647 679
1701 679
1727 679
1788 679
1836 679
1955 679
833 680
888 680
938 680
957 680
985 680
1101 680
1155 680
1392 680
1416 680
1418 680
1472 680
1551 680
1742 680
692 681
731 681
802 681
933 681
1207 681
1253 681
1275 681
1303 681
1432 681
1438 681
1545 681
1637 681
1654 681
789 682
868 682
1191 682
1196 682
1399 682
1443 682
1628 682
1680 682
1693 682
1729 682
837 683
906 683
1045 683
1053 683
1106 683
1126 683
1188 683
1307 683
1433 683
1529 683
1596 683
1612 683
686 684
701 684
745 684
751 684
773 684
1028 684
1119 684
1173 684
1402 684
1457 684
1740 684
1877 684
1967 684
1975 684
719 685
860 685
1052 685
1128 685
1223 685
1271 685
1280 685
1304 685
1480 685
1732 685
1851 685
1912 685
700 686
781 686
863 686
1128 686
1136 686
1295 686
1368 686
1401 686
1515 686
1612 686
1628 686
1640 686
1874 686
808 687
847 687
903 687
1031 687
1038 687
1104 687
1107 687
1292 687
1317 687
1553 687
1659 687
1868 687
722 688
998 688
999 688
1156 688
1234 688
1460 688
1471 688
1494 688
1617 688
1636 688
1644 688
1982 688
730 689
803 689
890 689
985 689
1019 689
1033 689
1135 689
1321 689
1371 689
1415 689
1437 689
1619 689
1673 689
1745 689
1855 689
1898 689
1926 689
697 690
751 690
819 690
884 690
1064 690
1185 690
1221 690
1383 690
1474 690
1482 690
1536 690
1549 690
1624 690
1631 690
1717 690
889 691
1102 691
1121 691
1247 691
1413 691
1531 691
1693 691
1736 691
1777 691
1806 691
1909 691
1961 691
1988 691
716 692
757 692
774 692
846 692
897 692
1006 692
1167 692
1190 692
1506 692
1701 692
1774 692
1778 692
1875 692
1908 692
1933 692
719 693
764 693
768 693
793 693
863 693
911 693
935 693
1045 693
1097 693
1118 693
1586 693
1593 693
1607 693
1642 693
1706 693
1834 693
1877 693
777 694
985 694
1107 694
1161 694
1168 694
1275 694
1336 694
1606 694
1782 694
736 695
922 695
966 695
980 695
1036 695
1054 695
1080 695
1086 695
1098 695
1217 695
1244 695
1246 695
1314 695
1325 695
1812 695
1826 695
1852 695
1923 695
1927 695
893 696
967 696
980 696
1027 696
1237 696
1284 696
1393 696
1427 696
1451 696
1506 696
1571 696
1644 696
1747 696
1759 696
1826 696
1886 696
1933 696
726 697
1108 697
1145 697
1388 697
1410 697
1442 697
1473 697
1550 697
1620 697
1799 697
852 698
958 698
978 698
1092 698
1443 698
1483 698
1486 698
1491 698
1551 698
1579 698
1842 698
1857 698
716 699
750 699
794 699
1130 699
1269 699
1284 699
1300 699
1313 699
1502 699
1534 699
1588 699
1675 699
1698 699
1756 699
1854 699
817 700
886 700
896 700
911 700
932 700
972 700
1403 700
1474 700
1554 700
1645 700
1717 700
1765 700
1815 700
1838 700
1909 700
2000 700
800 701
834 701
835 701
859 701
1159 701
1227 701
1261 701
1452 701
1465 701
1820 701
1851 701
1871 701
789 702
846 702
871 702
1097 702
1380 702
1647 702
1658 702
1708 702
1747 702
1788 702
1813 702
1846 702
1995 702
739 703
956 703
964 703
1255 703
1446 703
1462 703
1621 703
1645 703
1768 703
1993 703
763 704
770 704
882 704
1063 704
1067 704
1221 704
1644 704
1792 704
1802 704
1885 704
750 705
798 705
845 705
922 705
1259 705
1439 705
1499 705
1538 705
1550 705
1601 705
1965 705
878 706
938 706
1050 706
1125 706
1170 706
1317 706
1354 706
1502 706
1641 706
1668 706
1767 706
1785 706
1834 706
1938 706
1952 706
1962 706
713 707
835 707
902 707
975 707
1049 707
1078 707
1299 707
1446 707
1536 707
1599 707
1659 707
1786 707
856 708
969 708
1004 708
1070 708
1094 708
1095 708
1103 708
1137 708
1145 708
1243 708
1332 708
1432 708
1487 708
1516 708
1533 708
1724 708
1784 708
852 709
854 709
1173 709
1197 709
1352 709
1359 709
1413 709
1428 709
1440 709
1463 709
1476 709
1494 709
1507 709
1592 709
1922 709
1923 709
1969 709
763 710
839 710
1104 710
1247 710
1342 710
1489 710
1582 710
1819 710
1261 711
1442 711
1487 711
1609 711
1772 711
1784 711
1799 711
1942 711
771 712
777 712
889 712
978 712
995 712
1029 712
1059 712
1113 712
1166 712
1335 712
1356 712
1383 712
1472 712
1527 712
1613 712
1689 712
1783 712
1872 712
1881 712
1929 712
1943 712
877 713
1111 713
1138 713
1156 713
1206 713
1256 713
1666 713
1850 713
1868 713
1993 713
1038 714
1202 714
1215 714
1238 714
1279 714
1469 714
1496 714
1625 714
1689 714
1712 714
1092 715
1349 715
1574 715
1625 715
1661 715
1697 715
1885 715
1917 715
1923 715
1979 715
930 716
1062 716
1190 716
1364 716
1372 716
1390 716
1413 716
1490 716
1529 716
1573 716
1586 716
1707 716
1782 716
1794 716
1812 716
1030 717
1300 717
1382 717
1729 717
1840 717
1862 717
1889 717
1894 717
880 718
1091 718
1165 718
1229 718
1325 718
1382 718
1447 718
1574 718
1587 718
1649 718
1744 718
1913 718
1920 718
1996 718
723 719
804 719
922 719
1048 719
1050 719
1052 719
1130 719
1135 719
1203 719
1246 719
1304 719
1344 719
1400 719
1458 719
1459 719
738 720
741 720
1045 720
1057 720
1163 720
1396 720
1419 720
1510 720
1667 720
1910 720
1944 720
729 721
829 721
942 721
1019 721
1279 721
1414 721
1488 721
1924 721
1938 721
1015 722
1212 722
1267 722
1300 722
1341 722
1347 722
1440 722
1450 722
1582 722
1822 722
1827 722
1931 722
1987 722
784 723
951 723
1081 723
1230 723
1352 723
1385 723
1427 723
1510 723
1632 723
1711 723
725 724
932 724
1050 724
1511 724
1532 724
1540 724
1596 724
1864 724
743 725
755 725
792 725
1029 725
1162 725
1330 725
1385 725
1818 725
1948 725
1958 725
1993 725
766 726
941 726
1096 726
1166 726
1204 726
1267 726
1306 726
1373 726
1388 726
1580 726
1586 726
1858 726
1861 726
809 727
887 727
900 727
903 727
1140 727
1218 727
1223 727
1381 727
1451 727
1480 727
1555 727
1563 727
1597 727
1674 727
1705 727
802 728
846 728
925 728
1131 728
1154 728
1336 728
1439 728
1502 728
1627 728
1684 728
1722 728
1847 728
1854 728
1931 728
817 729
871 729
881 729
1064 729
1082 729
1087 729
1239 729
1425 729
1587 729
1858 729
1966 729
1979 729
744 730
795 730
797 730
808 730
894 730
952 730
1186 730
1348 730
1378 730
1410 730
1422 730
1577 730
1673 730
1682 730
1803 730
1810 730
795 731
870 731
983 731
1237 731
1320 731
1342 731
1360 731
1467 731
1544 731
1663 731
1790 731
1833 731
1834 731
1976 731
749 732
778 732
852 732
977 732
1028 732
1267 732
1280 732
1417 732
1680 732
1791 732
829 733
1050 733
1109 733
1145 733
1408 733
1447 733
1651 733
849 734
851 734
914 734
979 734
1132 734
1145 734
1383 734
1394 734
1402 734
1482 734
1822 734
1928 734
1939 734
841 735
917 735
1029 735
1046 735
1052 735
1067 735
1163 735
1243 735
1390 735
1510 735
1593 735
1741 735
1793 735
1894 735
1901 735
793 736
953 736
1025 736
1254 736
1321 736
1482 736
1492 736
1493 736
1632 736
1640 736
1692 736
853 737
859 737
958 737
987 737
997 737
1057 737
1060 737
1066 737
1129 737
1291 737
1320 737
1330 737
1369 737
1469 737
1619 737
1636 737
1866 737
771 738
807 738
1155 738
1239 738
1467 738
1481 738
1578 738
1747 738
1812 738
1845 738
1883 738
1906 738
1975 738
819 739
1192 739
1206 739
1301 739
1323 739
1339 739
1496 739
1578 739
1739 739
1800 739
1903 739
1904 739
1956 739
859 740
915 740
1024 740
1091 740
1096 740
1170 740
1264 740
1323 740
1452 740
1495 740
1519 740
1774 740
1896 740
1928 740
1949 740
755 741
814 741
832 741
923 741
1058 741
1125 741
1256 741
1492 741
1521 741
1527 741
1535 741
1577 741
1663 741
1806 741
1902 741
1963 741
758 742
772 742
1171 742
1205 742
1225 742
1438 742
1786 742
1948 742
1974 742
979 743
984 743
1056 743
1095 743
1175 743
1209 743
1241 743
1284 743
1516 743
1536 743
1604 743
1777 743
1778 743
1998 743
970 744
1000 744
1074 744
1336 744
1342 744
1349 744
1371 744
1561 744
1637 744
1654 744
1711 744
1716 744
1793 744
1814 744
1958 744
753 745
1007 745
1014 745
1082 745
1349 745
1385 745
1553 745
1577 745
1662 745
767 746
989 746
1013 746
1018 746
1027 746
1125 746
1533 746
1543 746
1666 746
1677 746
1859 746
753 747
801 747
841 747
903 747
951 747
1010 747
1201 747
1262 747
1711 747
1816 747
831 748
915 748
962 748
1162 748
1214 748
1223 748
1329 748
1356 748
1360 748
1525 748
1555 748
1559 748
1819 748
1868 748
1904 748
1959 748
939 749
1010 749
1111 749
1322 749
1344 749
1647 749
1745 749
1796 749
1891 749
1919 749
779 750
964 750
1119 750
1207 750
1396 750
1477 750
1695 750
1897 750
1918 750
818 751
833 751
858 751
878 751
909 751
1224 751
1259 751
1493 751
1881 751
846 752
865 752
936 752
979 752
1084 752
1243 752
1248 752
1294 752
1347 752
1688 752
1809 752
1874 752
1879 752
1943 752
879 753
917 753
1020 753
1063 753
1068 753
1124 753
1403 753
1734 753
1768 753
1802 753
1904 753
1939 753
1976 753
1991 753
761 754
792 754
1004 754
1071 754
1225 754
1432 754
1460 754
1547 754
1709 754
1715 754
1725 754
1761 754
1779 754
1792 754
1801 754
1866 754
795 755
897 755
938 755
1104 755
1113 755
1239 755
1370 755
1459 755
1501 755
1598 755
1602 755
1674 755
1675 755
1785 755
772 756
779 756
805 756
922 756
1025 756
1084 756
1092 756
1187 756
1221 756
1681 756
1803 756
1857 756
1891 756
1957 756
832 757
843 757
1108 757
1130 757
1258 757
1337 757
1434 757
1446 757
1583 757
1604 757
1749 757
1803 757
1875 757
1951 757
1977 757
842 758
1296 758
1306 758
1327 758
1340 758
1567 758
1647 758
1934 758
1957 758
854 759
1089 759
1160 759
1181 759
1371 759
1418 759
1584 759
1585 759
1666 759
1927 759
1992 759
840 760
909 760
1210 760
1284 760
1292 760
1309 760
1514 760
1569 760
1580 760
1694 760
1732 760
1753 760
1859 760
1882 760
1990 760
841 761
1224 761
1282 761
1331 761
1384 761
1471 761
1504 761
1642 761
1725 761
1932 761
893 762
967 762
1010 762
1109 762
1124 762
1142 762
1157 762
1254 762
1351 762
1406 762
1561 762
1625 762
1681 762
1682 762
1703 762
1771 762
1888 762
765 763
818 763
845 763
916 763
1197 763
1214 763
1298 763
1468 763
1533 763
1546 763
1716 763
1821 763
1871 763
1957 763
965 764
1041 764
1110 764
1149 764
1284 764
1322 764
1340 764
1426 764
1595 764
1861 764
787 765
1126 765
1213 765
1347 765
1460 765
1553 765
1570 765
1620 765
1634 765
1694 765
1713 765
1794 765
1930 765
768 766
823 766
1048 766
1211 766
1239 766
1525 766
1629 766
1937 766
889 767
1070 767
1325 767
1383 767
1387 767
1481 767
1564 767
1814 767
1883 767
1991 767
1269 768
1399 768
1486 768
1607 768
1608 768
1635 768
1837 768
1881 768
830 769
840 769
1107 769
1126 769
1264 769
1311 769
1976 769
818 770
857 770
858 770
992 770
1063 770
1154 770
1155 770
1187 770
1388 770
1394 770
1459 770
1520 770
1577 770
1667 770
1703 770
1935 770
942 771
1092 771
1155 771
1251 771
1366 771
1455 771
1537 771
1555 771
1769 771
1817 771
1931 771
1972 771
1078 772
1102 772
1121 772
1128 772
1159 772
1222 772
1278 772
1377 772
1408 772
1416 772
1609 772
1710 772
1763 772
1804 772
1925 772
1933 772
844 773
1019 773
1032 773
1104 773
1165 773
1193 773
1205 773
1487 773
1560 773
1582 773
1586 773
1684 773
1702 773
1862 773
812 774
1171 774
1388 774
1555 774
1636 774
1658 774
1667 774
1707 774
1944 774
1946 774
781 775
858 775
1131 775
1226 775
1296 775
1539 775
1879 775
1988 775
849 776
924 776
930 776
964 776
1097 776
1121 776
1181 776
1191 776
1216 776
1266 776
1273 776
1389 776
1470 776
1549 776
1573 776
1649 776
1660 776
1759 776
1836 776
1128 777
1169 777
1353 777
1357 777
1606 777
1654 777
1773 777
1883 777
1937 777
793 778
796 778
866 778
995 778
1104 778
1163 778
1188 778
1234 778
1235 778
1269 778
1279 778
1353 778
1448 778
1800 778
1820 778
1860 778
1891 778
1963 778
1103 779
1153 779
1158 779
1163 779
1308 779
1394 779
1523 779
1554 779
1720 779
1760 779
1776 779
1828 779
1929 779
1963 779
1317 780
1599 780
1923 780
1947 780
1952 780
839 781
878 781
1051 781
1075 781
1077 781
1119 781
1379 781
1438 781
1549 781
1631 781
1929 781
787 782
808 782
836 782
1059 782
1400 782
1516 782
1757 782
938 783
1063 783
1698 783
1778 783
1886 783
821 784
897 784
906 784
1116 784
1247 784
1256 784
1284 784
1359 784
1469 784
1685 784
1743 784
1833 784
1911 784
1983 784
1044 785
1114 785
1153 785
1387 785
1430 785
1551 785
1582 785
1718 785
1720 785
1823 785
1876 785
858 786
913 786
942 786
1018 786
1040 786
1058 786
1310 786
1347 786
1421 786
838 787
992 787
1078 787
1208 787
1273 787
1336 787
1492 787
1642 787
1694 787
1717 787
951 788
1062 788
1101 788
1225 788
1228 788
1552 788
1761 788
1803 788
1886 788
1889 788
1926 788
1118 789
1137 789
1353 789
1368 789
1418 789
1468 789
1601 789
842 790
1059 790
1228 790
1424 790
1462 790
1633 790
1677 790
1962 790
1983 790
981 791
989 791
1067 791
1090 791
1094 791
1149 791
1157 791
1304 791
1437 791
1489 791
1502 791
1727 791
1766 791
1828 791
1940 791
1982 791
1999 791
1005 792
1148 792
1392 792
1455 792
1598 792
1637 792
1662 792
1686 792
1723 792
1815 792
1972 792
800 793
818 793
839 793
1094 793
1418 793
1823 793
1846 793
1882 793
1935 793
1949 793
1987 793
1047 794
1209 794
1269 794
1284 794
1394 794
1789 794
1827 794
1891 794
854 795
935 795
968 795
1029 795
1127 795
1186 795
1219 795
1225 795
1299 795
1317 795
1661 795
1736 795
1750 795
1786 795
1827 795
1913 795
1065 796
1079 796
1456 796
1512 796
1590 796
1716 796
1899 796
849 797
889 797
936 797
1098 797
1351 797
1389 797
1395 797
1457 797
1625 797
1629 797
1665 797
1828 797
1882 797
884 798
1152 798
1158 798
1241 798
1254 798
1266 798
1325 798
1381 798
1421 798
1504 798
1509 798
1765 798
1826 798
1924 798
1936 798
1002 799
1040 799
1294 799
1435 799
1614 799
1845 799
1860 799
1889 799
825 800
951 800
980 800
1078 800
1101 800
1249 800
1369 800
1728 800
1915 800
821 801
863 801
868 801
869 801
905 801
934 801
956 801
1196 801
1390 801
1415 801
1416 801
1540 801
1880 801
1893 801
1919 801
866 802
873 802
997 802
1023 802
1186 802
1252 802
1351 802
1501 802
1503 802
1770 802
1888 802
1890 802
822 803
874 803
908 803
972 803
1383 803
1547 803
1561 803
1705 803
1744 803
1799 803
1893 803
910 804
954 804
988 804
1057 804
1079 804
1165 804
1281 804
1366 804
1516 804
1585 804
1656 804
1735 804
1782 804
1881 804
1938 804
1997 804
811 805
852 805
950 805
1000 805
1032 805
1078 805
1162 805
1168 805
1256 805
1273 805
1350 805
1391 805
1535 805
1602 805
1178 806
1228 806
1273 806
1304 806
1387 806
1439 806
1493 806
1535 806
1681 806
1806 806
930 807
1066 807
1247 807
1347 807
1418 807
1429 807
1455 807
1503 807
1519 807
1546 807
1563 807
1610 807
1701 807
1704 807
1718 807
1772 807
1810 807
1897 807
1901 807
882 808
1127 808
1139 808
1769 808
1816 808
980 809
1142 809
1244 809
1271 809
1416 809
1650 809
1839 809
1859 809
863 810
1086 810
1157 810
1248 810
1457 810
1687 810
1727 810
1843 810
1865 810
1886 810
1902 810
1928 810
943 811
1001 811
1031 811
1067 811
1213 811
1303 811
1433 811
1569 811
1605 811
1657 811
1751 811
1824 811
1896 811
868 812
929 812
1001 812
1040 812
1061 812
1216 812
1290 812
1394 812
1413 812
1431 812
1446 812
1857 812
1862 812
1916 812
1344 813
1380 813
1409 813
1480 813
1896 813
1926 813
877 814
1039 814
1081 814
1222 814
1261 814
1270 814
1291 814
1303 814
1334 814
1338 814
1343 814
1478 814
1666 814
1711 814
1725 814
1909 814
1974 814
1978 814
999 815
1331 815
1447 815
1856 815
1938 815
1968 815
831 816
833 816
914 816
1014 816
1049 816
1109 816
1119 816
1364 816
1547 816
1614 816
1849 816
1855 816
1936 816
1948 816
1146 817
1207 817
1282 817
1333 817
1352 817
1371 817
1413 817
1570 817
1605 817
1799 817
1869 817
1881 817
890 818
967 818
1026 818
1041 818
1248 818
1441 818
1561 818
1709 818
1831 818
1924 818
1022 819
1069 819
1138 819
1218 819
1329 819
1478 819
1625 819
1657 819
1660 819
1677 819
1797 819
1958 819
1996 819
1999 819
875 820
963 820
1053 820
1237 820
1259 820
1428 820
1511 820
1567 820
1654 820
1854 820
1927 820
1928 820
910 821
935 821
1029 821
1211 821
1354 821
1373 821
1388 821
1404 821
1426 821
1581 821
1640 821
1684 821
1720 821
1721 821
1881 821
1088 822
1584 822
1808 822
1955 822
962 823
1087 823
1248 823
1341 823
1505 823
1574 823
1584 823
1598 823
1622 823
1630 823
1774 823
956 824
1016 824
1024 824
1031 824
1106 824
1164 824
1245 824
1325 824
1387 824
1434 824
1681 824
1751 824
1764 824
1811 824
1885 824
840 825
852 825
926 825
1138 825
1315 825
1892 825
1973 825
890 826
966 826
996 826
1076 826
1266 826
1292 826
1300 826
1316 826
1317 826
1583 826
1775 826
1811 826
1865 826
1966 826
1047 827
1333 827
1356 827
1499 827
1650 827
1727 827
1953 827
864 828
1100 828
1132 828
1161 828
1594 828
1772 828
1833 828
1297 829
1341 829
1403 829
1455 829
1484 829
1678 829
1854 829
995 830
1214 830
1296 830
1437 830
1524 830
1878 830
1956 830
970 831
1096 831
1278 831
1455 831
1484 831
1542 831
1598 831
1606 831
1674 831
1704 831
1728 831
1802 831
1865 831
1890 831
1951 831
897 832
993 832
1043 832
1101 832
1164 832
1214 832
1299 832
1355 832
1421 832
1451 832
1522 832
1595 832
1951 832
1994 832
862 833
885 833
972 833
986 833
1022 833
1101 833
1104 833
1133 833
1490 833
1659 833
1739 833
1848 833
972 834
996 834
1011 834
1055 834
1152 834
1154 834
1222 834
1235 834
1293 834
1339 834
1575 834
1623 834
1630 834
1664 834
1880 834
1974 834
1072 835
1344 835
1404 835
1581 835
1613 835
1676 835
1991 835
940 836
999 836
1059 836
1088 836
1104 836
1167 836
1209 836
1285 836
1426 836
1433 836
1570 836
1588 836
1752 836
1053 837
1107 837
1311 837
1325 837
1343 837
1357 837
1411 837
1423 837
1441 837
1465 837
1563 837
1737 837
1949 837
846 838
858 838
1027 838
1087 838
1107 838
1136 838
1169 838
1211 838
1296 838
1344 838
1395 838
1736 838
1837 838
1986 838
969 839
1145 839
1184 839
1419 839
1466 839
1754 839
1761 839
1921 839
850 840
851 840
896 840
1041 840
1085 840
1149 840
1227 840
1280 840
1490 840
1492 840
1546 840
1587 840
1771 840
1774 840
1805 840
1881 840
872 841
882 841
934 841
1165 841
1193 841
1355 841
1461 841
1633 841
1741 841
1751 841
1994 841
1218 842
1288 842
1401 842
1528 842
1592 842
1714 842
1719 842
1743 842
1857 842
1037 843
1267 843
1292 843
1394 843
1452 843
1493 843
1521 843
1530 843
1538 843
1620 843
1648 843
1685 843
1692 843
1882 843
1914 843
1320 844
1465 844
1569 844
1575 844
1700 844
1735 844
1800 844
923 845
1016 845
1199 845
1286 845
1316 845
1330 845
1564 845
1588 845
1739 845
1988 845
1996 845
957 846
1003 846
1494 846
1583 846
1645 846
1679 846
1774 846
1834 846
1907 846
1995 846
900 847
956 847
1074 847
1131 847
1171 847
1356 847
1419 847
1434 847
1620 847
1633 847
1840 847
1984 847
888 848
945 848
1032 848
1099 848
1127 848
1208 848
1249 848
1358 848
1376 848
1656 848
1775 848
1787 848
1790 848
1965 848
956 849
968 849
986 849
1239 849
1260 849
1449 849
1512 849
1713 849
1760 849
1802 849
1924 849
1929 849
863 850
953 850
1012 850
1056 850
1166 850
1284 850
1293 850
1298 850
1358 850
1481 850
1527 850
1717 850
1771 850
1776 850
1827 850
1849 850
1874 850
942 851
1051 851
1128 851
1160 851
1239 851
1252 851
1291 851
1397 851
1454 851
1477 851
1701 851
1926 851
923 852
1021 852
1099 852
1233 852
1329 852
1390 852
1612 852
1825 852
1858 852
1883 852
1907 852
1981 852
897 853
982 853
993 853
1010 853
1072 853
1164 853
1191 853
1258 853
1262 853
1289 853
1308 853
1438 853
1489 853
1495 853
1588 853
901 854
1057 854
1370 854
1436 854
1655 854
1682 854
1719 854
1735 854
1867 854
1881 854
1912 854
1922 854
1979 854
1985 854
1998 854
960 855
1200 855
1605 855
1703 855
1737 855
1765 855
1817 855
864 856
875 856
995 856
1006 856
1137 856
1138 856
1176 856
1241 856
1441 856
1557 856
1602 856
1814 856
1872 856
1956 856
869 857
902 857
963 857
1008 857
1268 857
1431 857
1608 857
1761 857
1869 857
899 858
948 858
1007 858
1027 858
1036 858
1054 858
1068 858
1142 858
1387 858
1403 858
1569 858
1578 858
1675 858
1693 858
1800 858
959 859
1320 859
1591 859
1645 859
1730 859
1780 859
1029 860
1068 860
1143 860
1233 860
1307 860
1308 860
1367 860
1420 860
1468 860
1563 860
1572 860
1582 860
1629 860
1788 860
1849 860
1882 860
1889 860
936 861
1508 861
1619 861
1690 861
1743 861
1120 862
1284 862
1722 862
1779 862
1840 862
1131 863
1185 863
1473 863
1112 864
1227 864
1295 864
1479 864
1907 864
1941 864
1042 865
1071 865
1104 865
1188 865
1241 865
1244 865
1326 865
1356 865
1416 865
1502 865
1550 865
1561 865
1734 865
1808 865
1901 865
1954 865
1969 865
1000 866
1045 866
1116 866
1206 866
1268 866
1316 866
1672 866
1788 866
947 867
1009 867
1013 867
1044 867
1103 867
1407 867
1469 867
1596 867
1648 867
1734 867
1806 867
1926 867
907 868
920 868
1173 868
1432 868
1614 868
1643 868
1789 868
1829 868
1915 868
917 869
1011 869
1065 869
1130 869
1131 869
1479 869
1551 869
1614 869
1768 869
1840 869
1922 869
1933 869
1969 869
1055 870
1183 870
1242 870
1461 870
1474 870
1490 870
1591 870
1723 870
1732 870
1825 870
1916 870
1952 870
976 871
1075 871
1162 871
1195 871
1375 871
1419 871
1534 871
1879 871
1895 871
1898 871
1914 871
1949 871
1018 872
1136 872
1145 872
1187 872
1271 872
1300 872
1384 872
1506 872
1508 872
1542 872
1616 872
1662 872
1676 872
1712 872
1826 872
1948 872
900 873
956 873
966 873
1073 873
1172 873
1229 873
1250 873
1435 873
1477 873
1710 873
1748 873
1794 873
1838 873
1841 873
1147 874
1343 874
1346 874
1435 874
1449 874
1684 874
1686 874
1710 874
1791 874
1907 874
880 875
988 875
1011 875
1122 875
1208 875
1223 875
1230 875
1269 875
1273 875
1385 875
1405 875
1444 875
1511 875
1526 875
1567 875
1609 875
1654 875
1794 875
1897 875
1918 875
1978 875
993 876
1039 876
1283 876
1309 876
1334 876
1506 876
1614 876
1645 876
1703 876
911 877
983 877
1217 877
1339 877
1341 877
1448 877
1756 877
1911 877
879 878
886 878
958 878
1244 878
1272 878
1274 878
1444 878
1588 878
1766 878
1783 878
1805 878
1986 878
896 879
937 879
946 879
1015 879
1032 879
1087 879
1169 879
1183 879
1199 879
1211 879
1325 879
1397 879
1448 879
1665 879
1718 879
1789 879
1821 879
1847 879
1978 879
928 880
1128 880
1137 880
1143 880
1187 880
1241 880
1393 880
1431 880
1714 880
1925 880
1978 880
990 881
1078 881
1178 881
1203 881
1214 881
1392 881
1412 881
1424 881
1487 881
1619 881
1667 881
1738 881
1919 881
1943 881
921 882
1019 882
1129 882
1431 882
1458 882
1484 882
1595 882
1694 882
1750 882
1847 882
1848 882
1900 882
1922 882
1020 883
1631 883
1703 883
1721 883
909 884
922 884
1003 884
1183 884
1386 884
1554 884
1672 884
1715 884
1858 884
1890 884
953 885
958 885
1075 885
1116 885
1200 885
1266 885
1534 885
1564 885
1572 885
1744 885
1774 885
1785 885
1811 885
1842 885
975 886
1359 886
1388 886
1424 886
1522 886
1608 886
1635 886
1719 886
1745 886
1826 886
1911 886
891 887
1074 887
1318 887
1344 887
1432 887
1595 887
1602 887
1677 887
1710 887
1772 887
1804 887
1835 887
1864 887
894 888
978 888
1052 888
1054 888
1253 888
1507 888
1637 888
1684 888
1775 888
1996 888
1033 889
1058 889
1117 889
1323 889
1440 889
1699 889
1748 889
1883 889
1956 889
1023 890
1157 890
1470 890
1491 890
1498 890
1556 890
1585 890
1664 890
1894 890
1901 890
1958 890
1010 891
1142 891
1189 891
1348 891
1490 891
1515 891
1734 891
1833 891
1907 891
1023 892
1263 892
1329 892
1350 892
1393 892
1425 892
1448 892
1508 892
1528 892
1719 892
1784 892
1794 892
1863 892
1921 892
1988 892
1101 893
1103 893
1348 893
1414 893
1474 893
1708 893
1810 893
1860 893
1974 893
1019 894
1101 894
1125 894
1321 894
1341 894
1371 894
1421 894
1501 894
1594 894
1636 894
1691 894
1954 894
1216 895
1247 895
1259 895
1359 895
1490 895
1581 895
1818 895
1112 896
1132 896
1425 896
1437 896
1480 896
1538 896
1589 896
1600 896
1620 896
1651 896
1701 896
1702 896
1714 896
1724 896
1726 896
1918 896
1028 897
1055 897
1250 897
1311 897
1375 897
1615 897
1705 897
990 898
1085 898
1483 898
1615 898
1747 898
1977 898
949 899
961 899
1092 899
1344 899
1423 899
1669 899
1784 899
1877 899
1954 899
1990 899
1003 900
1027 900
1068 900
1170 900
1311 900
1577 900
1699 900
1895 900
1983 900
1160 901
1233 901
1358 901
1480 901
1599 901
1614 901
1697 901
1707 901
1791 901
1826 901
1905 901
1984 901
1027 902
1079 902
1161 902
1408 902
1420 902
1439 902
1440 902
1514 902
1733 902
1741 902
1793 902
1971 902
985 903
994 903
1414 903
1497 903
1550 903
1557 903
1588 903
1793 903
1824 903
1900 903
1987 903
950 904
1020 904
1329 904
1346 904
1374 904
1377 904
1440 904
1583 904
1677 904
1889 904
1911 904
1146 905
1238 905
1650 905
1713 905
1798 905
1909 905
1316 906
1369 906
1429 906
1507 906
1535 906
1683 906
967 907
1079 907
1098 907
1105 907
1167 907
1355 907
1410 907
1471 907
1586 907
1933 907
1988 907
1196 908
1667 908
1685 908
1879 908
915 909
1145 909
1401 909
1487 909
1524 909
1695 909
1705 909
1809 909
1841 909
1852 909
1865 909
1927 909
1006 910
1074 910
1105 910
1233 910
1241 910
1330 910
1368 910
1386 910
1388 910
1414 910
1515 910
1559 910
1588 910
1688 910
1696 910
1716 910
1969 910
977 911
1080 911
1137 911
1219 911
1243 911
1363 911
1421 911
1521 911
1666 911
1696 911
1876 911
1881 911
1924 911
929 912
994 912
1056 912
1108 912
1469 912
1524 912
1556 912
1606 912
1699 912
1776 912
1787 912
1909 912
1032 913
1589 913
1758 913
1761 913
1772 913
1928 913
1979 913
988 914
1226 914
1332 914
1507 914
1532 914
1570 914
1608 914
1831 914
939 915
1024 915
1226 915
1410 915
1524 915
1568 915
1667 915
1697 915
1775 915
1888 915
1939 915
933 916
949 916
962 916
1122 916
1152 916
1242 916
1351 916
1453 916
1606 916
1670 916
1878 916
1898 916
1939 916
1113 917
1505 917
1564 917
1594 917
1632 917
1690 917
1698 917
1701 917
1821 917
1864 917
1009 918
1173 918
1295 918
1392 918
1405 918
1505 918
1651 918
1689 918
1977 918
2000 918
1132 919
1143 919
1169 919
1177 919
1481 919
1562 919
1638 919
1701 919
1744 919
1805 919
1852 919
1894 919
1912 919
1966 919
1975 919
964 920
1059 920
1155 920
1327 920
1346 920
1458 920
1514 920
1724 920
1748 920
1776 920
1804 920
1914 920
1041 921
1203 921
1217 921
1293 921
1442 921
1537 921
1661 921
1900 921
936 922
1111 922
1132 922
1208 922
1408 922
1605 922
1745 922
1874 922
1931 922
1202 923
1232 923
1301 923
1317 923
1342 923
1442 923
1592 923
1622 923
1793 923
1873 923
1898 923
1956 923
1063 924
1245 924
1261 924
1321 924
1500 924
1528 924
1970 924
933 925
979 925
1146 925
1242 925
1260 925
1323 925
1514 925
1662 925
1828 925
1892 925
1991 925
945 926
1395 926
1428 926
1466 926
1476 926
1657 926
1947 926
963 927
978 927
1094 927
1104 927
1469 927
1598 927
1626 927
1628 927
1631 927
1754 927
1776 927
1781 927
1822 927
1855 927
1892 927
1905 927
1914 927
1987 927
1988 927
1044 928
1225 928
1263 928
1483 928
1546 928
1602 928
1742 928
1745 928
1763 928
1768 928
1910 928
1915 928
964 929
1123 929
1214 929
1266 929
1383 929
1504 929
1600 929
1754 929
1763 929
1826 929
1853 929
1880 929
962 930
1105 930
1127 930
1141 930
1504 930
1737 930
1748 930
1799 930
1028 931
1183 931
1412 931
1696 931
1902 931
1918 931
1155 932
1234 932
1337 932
1650 932
993 933
1098 933
1244 933
1245 933
1253 933
1546 933
1923 933
1944 933
1162 934
1269 934
1270 934
1298 934
1439 934
1478 934
1516 934
1550 934
1601 934
1632 934
1727 934
1823 934
1880 934
1986 934
968 935
1447 935
1721 935
1791 935
1801 935
1948 935
1965 935
988 936
1058 936
1141 936
1219 936
1222 936
1248 936
1452 936
1694 936
1702 936
1719 936
1732 936
1836 936
1884 936
1110 937
1213 937
1223 937
1341 937
1343 937
1377 937
1753 937
1816 937
1856 937
1944 937
1010 938
1138 938
1158 938
1286 938
1297 938
1341 938
1508 938
1529 938
1558 938
1559 938
1563 938
1661 938
1751 938
1783 938
1813 938
1837 938
1928 938
963 939
969 939
1124 939
1375 939
1437 939
1487 939
1500 939
1523 939
1535 939
1580 939
1594 939
1674 939
1682 939
1698 939
1774 939
1838 939
1287 940
1828 940
1968 940
952 941
1118 941
1130 941
1145 941
1301 941
1337 941
1506 941
1919 941
1962 941
966 942
1214 942
1385 942
1460 942
1510 942
1520 942
1534 942
1634 942
1712 942
1716 942
1848 942
1853 942
1969 942
1231 943
1413 943
1522 943
1694 943
1970 943
950 944
1035 944
1037 944
1058 944
1101 944
1122 944
1216 944
1236 944
1246 944
1295 944
1514 944
1537 944
1681 944
1721 944
1781 944
1842 944
1939 944
1948 944
981 945
990 945
1027 945
1376 945
1472 945
1513 945
1515 945
1616 945
1618 945
1631 945
1829 945
1335 946
1430 946
1440 946
1595 946
1652 946
1876 946
1967 946
974 947
1129 947
1137 947
1146 947
1366 947
1414 947
1457 947
1545 947
1571 947
1655 947
1663 947
1721 947
1978 947
1196 948
1228 948
1318 948
1326 948
1391 948
1482 948
1553 948
1865 948
1981 948
967 949
1044 949
1073 949
1075 949
1083 949
1105 949
1138 949
1298 949
1314 949
1362 949
1369 949
1556 949
1571 949
1606 949
1819 949
1973 949
1057 950
1136 950
1246 950
1364 950
1381 950
1388 950
1453 950
1647 950
1718 950
1755 950
1875 950
1970 950
1971 950
1168 951
1216 951
1345 951
1365 951
1463 951
1486 951
1608 951
1696 951
1700 951
1825 951
1868 951
1041 952
1111 952
1138 952
1386 952
1440 952
1596 952
1660 952
1686 952
1723 952
1738 952
1797 952
1889 952
1024 953
1063 953
1274 953
1370 953
1399 953
1577 953
1580 953
1613 953
1782 953
1803 953
1806 953
1885 953
1959 953
1218 954
1268 954
1332 954
1613 954
1648 954
1019 955
1197 955
1342 955
1541 955
1622 955
1652 955
1661 955
1958 955
1089 956
1130 956
1141 956
1230 956
1326 956
1366 956
1438 956
1596 956
1609 956
1627 956
1758 956
1791 956
1961 956
1979 956
1247 957
1282 957
1310 957
1510 957
1669 957
1682 957
1706 957
1867 957
1033 958
1076 958
1412 958
1495 958
1582 958
1900 958
1951 958
1086 959
1158 959
1357 959
1437 959
1483 959
1700 959
1824 959
1045 960
1325 960
1596 960
1632 960
1873 960
1895 960
1900 960
1912 960
1990 960
968 961
993 961
994 961
1031 961
1168 961
1322 961
1399 961
1438 961
1486 961
1596 961
1747 961
1766 961
1843 961
1978 961
1990 961
1009 962
1083 962
1126 962
1285 962
1391 962
1540 962
1559 962
1583 962
1623 962
1772 962
1796 962
1798 962
1871 962
971 963
1082 963
1136 963
1297 963
1578 963
1585 963
1685 963
1877 963
977 964
982 964
1105 964
1159 964
1177 964
1339 964
1349 964
1474 964
1597 964
1605 964
1667 964
1686 964
1724 964
1898 964
1939 964
1149 965
1608 965
1429 966
1486 966
1860 966
1958 966
1025 967
1246 967
1351 967
1461 967
1503 967
1595 967
1654 967
1706 967
1744 967
1863 967
1895 967
990 968
1089 968
1291 968
1337 968
1450 968
1521 968
1559 968
1600 968
1624 968
1659 968
1685 968
1801 968
1876 968
980 969
1414 969
1415 969
1661 969
1715 969
1741 969
1751 969
1899 969
1029 970
1317 970
1319 970
1384 970
1611 970
1813 970
1834 970
1965 970
1001 971
1237 971
1274 971
1297 971
1564 971
1599 971
1716 971
1762 971
1899 971
1951 971
1100 972
1145 972
1156 972
1287 972
1408 972
1462 972
1486 972
1742 972
1958 972
1962 972
1076 973
1248 973
1331 973
1365 973
1598 973
1735 973
1838 973
1881 973
1977 973
979 974
1130 974
1199 974
1263 974
1474 974
1652 974
1675 974
1745 974
1796 974
1803 974
1822 974
1847 974
1080 975
1249 975
1400 975
1514 975
1745 975
1849 975
1975 975
1096 976
1142 976
1153 976
1180 976
1864 976
1865 976
1895 976
1921 976
1941 976
1950 976
1006 977
1079 977
1131 977
1133 977
1317 977
1436 977
1617 977
1635 977
1698 977
1767 977
1804 977
1849 977
1889 977
979 978
991 978
1032 978
1124 978
1185 978
1414 978
1432 978
1599 978
1619 978
1894 978
1904 978
1905 978
988 979
998 979
1001 979
1005 979
1180 979
1294 979
1319 979
1323 979
1330 979
1441 979
1455 979
1588 979
1590 979
1653 979
1690 979
1703 979
1816 979
1963 979
1210 980
1259 980
1377 980
1521 980
1555 980
1664 980
1668 980
1670 980
1678 980
1709 980
1716 980
1743 980
1798 980
1046 981
1080 981
1283 981
1427 981
1446 981
1514 981
1515 981
1525 981
1795 981
1826 981
1081 982
1179 982
1651 982
1675 982
1691 982
1813 982
1828 982
1875 982
1904 982
1921 982
1093 983
1114 983
1188 983
1197 983
1234 983
1510 983
1543 983
1687 983
1692 983
1730 983
1977 983
1091 984
1212 984
1259 984
1329 984
1342 984
1408 984
1414 984
1667 984
1693 984
1773 984
1852 984
1908 984
1034 985
1035 985
1102 985
1372 985
1388 985
1497 985
1557 985
1592 985
1931 985
1137 986
1281 986
1332 986
1524 986
1800 986
1822 986
1843 986
1913 986
1950 986
1181 987
1228 987
1349 987
1356 987
1408 987
1420 987
1750 987
1757 987
1880 987
1903 987
1946 987
1041 988
1063 988
1101 988
1104 988
1199 988
1312 988
1463 988
1511 988
1603 988
1718 988
1950 988
1965 988
2000 988
1031 989
1033 989
1135 989
1182 989
1196 989
1256 989
1463 989
1643 989
1793 989
1819 989
1908 989
1075 990
1102 990
1164 990
1255 990
1319 990
1475 990
1541 990
1563 990
1905 990
1052 991
1184 991
1341 991
1411 991
1540 991
1056 992
1105 992
1128 992
1231 992
1256 992
1321 992
1384 992
1397 992
1480 992
1723 992
1808 992
1831 992
1921 992
1082 993
1085 993
1145 993
1197 993
1267 993
1317 993
1558 993
1620 993
1633 993
1636 993
1673 993
1793 993
1802 993
1868 993
1925 993
1081 994
1134 994
1340 994
1428 994
1446 994
1505 994
1548 994
1627 994
1015 995
1035 995
1120 995
1243 995
1447 995
1541 995
1698 995
1779 995
1845 995
1852 995
1902 995
1933 995
1968 995
1220 996
1273 996
1435 996
1498 996
1531 996
1657 996
1716 996
1821 996
1870 996
1055 997
1114 997
1434 997
1672 997
1765 997
1874 997
1877 997
1930 997
1150 998
1184 998
1283 998
1297 998
1465 998
1764 998
1789 998
1996 998
1358 999
1439 999
1628 999
1691 999
1979 999
1062 1000
1067 1000
1174 1000
1232 1000
1385 1000
1406 1000
1526 1000
1578 1000
1590 1000
1605 1000
1692 1000
1803 1000
1852 1000
1891 1000
1942 1000
1995 1000
1173 1001
1228 1001
1268 1001
1354 1001
1461 1001
1518 1001
1549 1001
1568 1001
1581 1001
1608 1001
1613 1001
1701 1001
1854 1001
1964 1001
1050 1002
1183 1002
1242 1002
1245 1002
1311 1002
1413 1002
1526 1002
1590 1002
1640 1002
1691 1002
1863 1002
1899 1002
1049 1003
1061 1003
1188 1003
1346 1003
1605 1003
1745 1003
1750 1003
1758 1003
1791 1003
1904 1003
1910 1003
1911 1003
1917 1003
1138 1004
1170 1004
1221 1004
1477 1004
1480 1004
1531 1004
1535 1004
1565 1004
1615 1004
1627 1004
1998 1004
1023 1005
1154 1005
1311 1005
1563 1005
1597 1005
1746 1005
1768 1005
1963 1005
1155 1006
1196 1006
1213 1006
1222 1006
1387 1006
1502 1006
1528 1006
1546 1006
1594 1006
1656 1006
1010 1007
1197 1007
1404 1007
1622 1007
1654 1007
1690 1007
1811 1007
1928 1007
1302 1008
1438 1008
1478 1008
1531 1008
1562 1008
1579 1008
1593 1008
1623 1008
1732 1008
1862 1008
1903 1008
1933 1008
1967 1008
1029 1009
1032 1009
1088 1009
1118 1009
1156 1009
1206 1009
1306 1009
1310 1009
1436 1009
1964 1009
1993 1009
1225 1010
1293 1010
1529 1010
1551 1010
1575 1010
1641 1010
1794 1010
1850 1010
1876 1010
1893 1010
1896 1010
1056 1011
1438 1011
1491 1011
1548 1011
1670 1011
1765 1011
1859 1011
1888 1011
1996 1011
1123 1012
1149 1012
1164 1012
1223 1012
1444 1012
1629 1012
1750 1012
1043 1013
1371 1013
1406 1013
1437 1013
1450 1013
1708 1013
1784 1013
1851 1013
1069 1014
1446 1014
1461 1014
1542 1014
1641 1014
1895 1014
1938 1014
1019 1015
1095 1015
1233 1015
1311 1015
1373 1015
1452 1015
1484 1015
1564 1015
1595 1015
1714 1015
1858 1015
1925 1015
1929 1015
1937 1015
1944 1015
1064 1016
1200 1016
1237 1016
1265 1016
1368 1016
1387 1016
1470 1016
1677 1016
1753 1016
1806 1016
1832 1016
1072 1017
1225 1017
1364 1017
1502 1017
1535 1017
1675 1017
1742 1017
1903 1017
1948 1017
1046 1018
1052 1018
1116 1018
1130 1018
1208 1018
1384 1018
1647 1018
1698 1018
1778 1018
1936 1018
1947 1018
1098 1019
1208 1019
1307 1019
1447 1019
1487 1019
1676 1019
1882 1019
1898 1019
1959 1019
1079 1020
1278 1020
1451 1020
1700 1020
1731 1020
1838 1020
1128 1021
1212 1021
1241 1021
1351 1021
1614 1021
1690 1021
1719 1021
1743 1021
1809 1021
1844 1021
1849 1021
1883 1021
1036 1022
1166 1022
1309 1022
1375 1022
1493 1022
1654 1022
1741 1022
1904 1022
1138 1023
1236 1023
1290 1023
1483 1023
1532 1023
1808 1023
1880 1023
1042 1024
1113 1024
1120 1024
1160 1024
1426 1024
1577 1024
1742 1024
1775 1024
1968 1024
1972 1024
1031 1025
1054 1025
1192 1025
1226 1025
1457 1025
1505 1025
1536 1025
1586 1025
1980 1025
1128 1026
1137 1026
1262 1026
1313 1026
1353 1026
1395 1026
1411 1026
1471 1026
1714 1026
1832 1026
1926 1026
1938 1026
1940 1026
1043 1027
1214 1027
1295 1027
1322 1027
1330 1027
1400 1027
1419 1027
1626 1027
1814 1027
1037 1028
1196 1028
1316 1028
1330 1028
1428 1028
1591 1028
1633 1028
1750 1028
1863 1028
1972 1028
1145 1029
1553 1029
1584 1029
1630 1029
1657 1029
1703 1029
1840 1029
1939 1029
1975 1029
1985 1029
1113 1030
1116 1030
1250 1030
1420 1030
1449 1030
1635 1030
1710 1030
1789 1030
1817 1030
1060 1031
1064 1031
1070 1031
1130 1031
1510 1031
1872 1031
1043 1032
1188 1032
1298 1032
1362 1032
1444 1032
1589 1032
1704 1032
1779 1032
1791 1032
1967 1032
1060 1033
1149 1033
1167 1033
1321 1033
1385 1033
1634 1033
1719 1033
1789 1033
1804 1033
1865 1033
1897 1033
1898 1033
1946 1033
1171 1034
1175 1034
1309 1034
1486 1034
1642 1034
1656 1034
1680 1034
1749 1034
1242 1035
1246 1035
1330 1035
1391 1035
1431 1035
1433 1035
1457 1035
1501 1035
1594 1035
1626 1035
1659 1035
1682 1035
1705 1035
1740 1035
1746 1035
1987 1035
1995 1035
1110 1036
1356 1036
1502 1036
1548 1036
1559 1036
1572 1036
1750 1036
1051 1037
1141 1037
1202 1037
1236 1037
1279 1037
1329 1037
1332 1037
1337 1037
1404 1037
1578 1037
1678 1037
1104 1038
1135 1038
1426 1038
1438 1038
1552 1038
1559 1038
1634 1038
1662 1038
1735 1038
1376 1039
1381 1039
1451 1039
1852 1039
1995 1039
1998 1039
1229 1040
1285 1040
1414 1040
1599 1040
1617 1040
1811 1040
1831 1040
1079 1041
1263 1041
1314 1041
1360 1041
1389 1041
1424 1041
1471 1041
1473 1041
1510 1041
1676 1041
1787 1041
1877 1041
1285 1042
1425 1042
1458 1042
1672 1042
1143 1043
1271 1043
1524 1043
1613 1043
1730 1043
1773 1043
1815 1043
1843 1043
1855 1043
1861 1043
1905 1043
1116 1044
1285 1044
1406 1044
1489 1044
1508 1044
1568 1044
1687 1044
1742 1044
1778 1044
1820 1044
1822 1044
1920 1044
1974 1044
1217 1045
1257 1045
1339 1045
1382 1045
1385 1045
1389 1045
1401 1045
1607 1045
1636 1045
1657 1045
1725 1045
1733 1045
1907 1045
1109 1046
1300 1046
1382 1046
1600 1046
1666 1046
1869 1046
1951 1046
1074 1047
1172 1047
1263 1047
1375 1047
1432 1047
1607 1047
1135 1048
1348 1048
1579 1048
1639 1048
1836 1048
1847 1048
1924 1048
1112 1049
1134 1049
1249 1049
1519 1049
1604 1049
1669 1049
1696 1049
1750 1049
1835 1049
1887 1049
1946 1049
1972 1049
1148 1050
1189 1050
1274 1050
1352 1050
1378 1050
1482 1050
1798 1050
1917 1050
1920 1050
1956 1050
1192 1051
1245 1051
1286 1051
1393 1051
1405 1051
1421 1051
1460 1051
1480 1051
1504 1051
1563 1051
1579 1051
1597 1051
1605 1051
1705 1051
1804 1051
1103 1052
1165 1052
1260 1052
1328 1052
1467 1052
1509 1052
1617 1052
1669 1052
1752 1052
1762 1052
1876 1052
1894 1052
1166 1053
1489 1053
1494 1053
1549 1053
1581 1053
1618 1053
1834 1053
1841 1053
1108 1054
1114 1054
1758 1054
1074 1055
1382 1055
1401 1055
1584 1055
1701 1055
1835 1055
1848 1055
1878 1055
1896 1055
1907 1055
1950 1055
1982 1055
1237 1056
1536 1056
1630 1056
1655 1056
1735 1056
1811 1056
1844 1056
1887 1056
1947 1056
1976 1056
1083 1057
1211 1057
1471 1057
1497 1057
1617 1057
1622 1057
1172 1058
1207 1058
1217 1058
1337 1058
1642 1058
1963 1058
1983 1058
1122 1059
1176 1059
1302 1059
1346 1059
1422 1059
1425 1059
1517 1059
1595 1059
1708 1059
1795 1059
1985 1059
1995 1059
1130 1060
1399 1060
1422 1060
1430 1060
1671 1060
1675 1060
1678 1060
1703 1060
1805 1060
1895 1060
1904 1060
1938 1060
1124 1061
1177 1061
1187 1061
1191 1061
1213 1061
1222 1061
1232 1061
1444 1061
1503 1061
1617 1061
1685 1061
1733 1061
1744 1061
1191 1062
1302 1062
1464 1062
1831 1062
1954 1062
1977 1062
1133 1063
1514 1063
1700 1063
1711 1063
1885 1063
1982 1063
1097 1064
1168 1064
1256 1064
1376 1064
1383 1064
1419 1064
1742 1064
1863 1064
1964 1064
1975 1064
1205 1065
1209 1065
1277 1065
1378 1065
1453 1065
1478 1065
1522 1065
1746 1065
1834 1065
1989 1065
1094 1066
1103 1066
1188 1066
1212 1066
1344 1066
1425 1066
1493 1066
1499 1066
1603 1066
1829 1066
1861 1066
1951 1066
1976 1066
1262 1067
1274 1067
1457 1067
1663 1067
1671 1067
1702 1067
1719 1067
1756 1067
1815 1067
1918 1067
1977 1067
1983 1067
1253 1068
1298 1068
1484 1068
1599 1068
1849 1068
1933 1068
1960 1068
1279 1069
1414 1069
1452 1069
1482 1069
1540 1069
1794 1069
1873 1069
1998 1069
1131 1070
1140 1070
1199 1070
1317 1070
1430 1070
1514 1070
1539 1070
1554 1070
1619 1070
1678 1070
1758 1070
1811 1070
1848 1070
1890 1070
1942 1070
1988 1070
1261 1071
1321 1071
1398 1071
1532 1071
1681 1071
1689 1071
1937 1071
1129 1072
1132 1072
1187 1072
1223 1072
1563 1072
1607 1072
1616 1072
1881 1072
1883 1072
1087 1073
1100 1073
1123 1073
1331 1073
1388 1073
1456 1073
1643 1073
1771 1073
1928 1073
1988 1073
1109 1074
1133 1074
1345 1074
1416 1074
1471 1074
1667 1074
1795 1074
1201 1075
1205 1075
1262 1075
1489 1075
1537 1075
1773 1075
1905 1075
1079 1076
1263 1076
1441 1076
1449 1076
1459 1076
1494 1076
1506 1076
1943 1076
1996 1076
1083 1077
1124 1077
1352 1077
1465 1077
1592 1077
1639 1077
1792 1077
1977 1077
1543 1078
1589 1078
1678 1078
1829 1078
1252 1079
1279 1079
1339 1079
1469 1079
1591 1079
1632 1079
1840 1079
1983 1079
1177 1080
1224 1080
1518 1080
1546 1080
1657 1080
1676 1080
1847 1080
1938 1080
1198 1081
1243 1081
1330 1081
1345 1081
1416 1081
1441 1081
1497 1081
1621 1081
1644 1081
1783 1081
1951 1081
1102 1082
1143 1082
1167 1082
1172 1082
1252 1082
1298 1082
1399 1082
1550 1082
1662 1082
1757 1082
1863 1082
1898 1082
1953 1082
1977 1082
1992 1082
1997 1082
1156 1083
1174 1083
1292 1083
1335 1083
1344 1083
1418 1083
1609 1083
1721 1083
1813 1083
1816 1083
1817 1083
1869 1083
1907 1083
1124 1084
1170 1084
1184 1084
1303 1084
1599 1084
1607 1084
1611 1084
1751 1084
1758 1084
1909 1084
1129 1085
1150 1085
1267 1085
1341 1085
1394 1085
1419 1085
1428 1085
1556 1085
1774 1085
1840 1085
1952 1085
1970 1085
1144 1086
1249 1086
1379 1086
1385 1086
1675 1086
1247 1087
1286 1087
1287 1087
1292 1087
1692 1087
1707 1087
1740 1087
1797 1087
1999 1087
1131 1088
1148 1088
1263 1088
1268 1088
1371 1088
1512 1088
1530 1088
1752 1088
1850 1088
1864 1088
1874 1088
1942 1088
1993 1088
1102 1089
1200 1089
1303 1089
1327 1089
1388 1089
1389 1089
1432 1089
1456 1089
1457 1089
1584 1089
1659 1089
1965 1089
1175 1090
1326 1090
1412 1090
1449 1090
1503 1090
1701 1090
1723 1090
1731 1090
1294 1091
1406 1091
1420 1091
1438 1091
1502 1091
1601 1091
1643 1091
1652 1091
1661 1091
1693 1091
1795 1091
1826 1091
1997 1091
1175 1092
1199 1092
1226 1092
1239 1092
1510 1092
1806 1092
1884 1092
1220 1093
1283 1093
1297 1093
1333 1093
1356 1093
1531 1093
1615 1093
1778 1093
1785 1093
1908 1093
1960 1093
1285 1094
1390 1094
1408 1094
1686 1094
1802 1094
1388 1095
1497 1095
1501 1095
1669 1095
1725 1095
1726 1095
1815 1095
1854 1095
1890 1095
1950 1095
1229 1096
1239 1096
1314 1096
1328 1096
1349 1096
1368 1096
1386 1096
1537 1096
1590 1096
1598 1096
1669 1096
1835 1096
1842 1096
1961 1096
1208 1097
1606 1097
1736 1097
1773 1097
1238 1098
1266 1098
1268 1098
1723 1098
1742 1098
1843 1098
1102 1099
1163 1099
1577 1099
1685 1099
1694 1099
1943 1099
1136 1100
1268 1100
1445 1100
1497 1100
1509 1100
1679 1100
1689 1100
1743 1100
1879 1100
1919 1100
1942 1100
1131 1101
1155 1101
1221 1101
1329 1101
1347 1101
1361 1101
1369 1101
1489 1101
1622 1101
1746 1101
1797 1101
1876 1101
1989 1101
1110 1102
1127 1102
1147 1102
1609 1102
1653 1102
1834 1102
1849 1102
1864 1102
1977 1102
1991 1102
1110 1103
1192 1103
1205 1103
1250 1103
1289 1103
1468 1103
1551 1103
1557 1103
1662 1103
1900 1103
1946 1103
1952 1103
1374 1104
1471 1104
1534 1104
1621 1104
1667 1104
1725 1104
1854 1104
1399 1105
1479 1105
1679 1105
1693 1105
1840 1105
1861 1105
1268 1106
1318 1106
1356 1106
1567 1106
1592 1106
1612 1106
1811 1106
1995 1106
1219 1107
1262 1107
1368 1107
1541 1107
1698 1107
1143 1108
1150 1108
1498 1108
1520 1108
1524 1108
1703 1108
1796 1108
1849 1108
1887 1108
1941 1108
1971 1108
1141 1109
1249 1109
1268 1109
1289 1109
1424 1109
1585 1109
1751 1109
1898 1109
1153 1110
1170 1110
1173 1110
1294 1110
1402 1110
1469 1110
1597 1110
1603 1110
1642 1110
1688 1110
1721 1110
1778 1110
1779 1110
1897 1110
1933 1110
1453 1111
1507 1111
1540 1111
1739 1111
1859 1111
1919 1111
1239 1112
1437 1112
1647 1112
1656 1112
1739 1112
1752 1112
1771 1112
1159 1113
1265 1113
1518 1113
1618 1113
1695 1113
1865 1113
1973 1113
1120 1114
1152 1114
1166 1114
1202 1114
1303 1114
1587 1114
1727 1114
1937 1114
1194 1115
1245 1115
1263 1115
1364 1115
1422 1115
1514 1115
1586 1115
1988 1115
1211 1116
1457 1116
1597 1116
1812 1116
1884 1116
1229 1117
1293 1117
1352 1117
1409 1117
1410 1117
1478 1117
1508 1117
1685 1117
1878 1117
1318 1118
1693 1118
1708 1118
1900 1118
1901 1118
1908 1118
1917 1118
1951 1118
1244 1119
1304 1119
1308 1119
1316 1119
1412 1119
1427 1119
1435 1119
1504 1119
1530 1119
1890 1119
1891 1119
1228 1120
1327 1120
1387 1120
1393 1120
1440 1120
1745 1120
1782 1120
1823 1120
1829 1120
1851 1120
1956 1120
1978 1120
1991 1120
1224 1121
1420 1121
1579 1121
1813 1121
1921 1121
1946 1121
1974 1121
1983 1121
1164 1122
1374 1122
1383 1122
1639 1122
1662 1122
1837 1122
1199 1123
1515 1123
1568 1123
1703 1123
1776 1123
1784 1123
1812 1123
1873 1123
1876 1123
1354 1124
1461 1124
1480 1124
1665 1124
1716 1124
1963 1124
1361 1125
1467 1125
1619 1125
1677 1125
1262 1126
1310 1126
1352 1126
1672 1126
1683 1126
1687 1126
1715 1126
1773 1126
1856 1126
1896 1126
1175 1127
1257 1127
1258 1127
1368 1127
1428 1127
1441 1127
1492 1127
1565 1127
1645 1127
1731 1127
1758 1127
1774 1127
1843 1127
1875 1127
1950 1127
1991 1127
1130 1128
1273 1128
1295 1128
1353 1128
1392 1128
1591 1128
1708 1128
1868 1128
1895 1128
1995 1128
1224 1129
1243 1129
1280 1129
1429 1129
1435 1129
1584 1129
1661 1129
1703 1129
1563 1130
1640 1130
1746 1130
1812 1130
1827 1130
1927 1130
1230 1131
1271 1131
1303 1131
1359 1131
1376 1131
1440 1131
1682 1131
1796 1131
1800 1131
1882 1131
1264 1132
1314 1132
1461 1132
1532 1132
1650 1132
1900 1132
1904 1132
1965 1132
1196 1133
1226 1133
1245 1133
1366 1133
1480 1133
1607 1133
1615 1133
1640 1133
1676 1133
1717 1133
1817 1133
1925 1133
1175 1134
1556 1134
1648 1134
1784 1134
1787 1134
1945 1134
1950 1134
1997 1134
1439 1135
1517 1135
1143 1136
1158 1136
1313 1136
1366 1136
1444 1136
1445 1136
1461 1136
1593 1136
1626 1136
1848 1136
1354 1137
1479 1137
1559 1137
1691 1137
1938 1137
1187 1138
1198 1138
1290 1138
1444 1138
1450 1138
1630 1138
1653 1138
1719 1138
1918 1138
1995 1138
1214 1139
1224 1139
1302 1139
1848 1139
1922 1139
1152 1140
1185 1140
1223 1140
1332 1140
1352 1140
1501 1140
1764 1140
1842 1140
1851 1140
1853 1140
1218 1141
1229 1141
1291 1141
1303 1141
1753 1141
1167 1142
1235 1142
1381 1142
1589 1142
1678 1142
1836 1142
1863 1142
1865 1142
1917 1142
1250 1143
1348 1143
1582 1143
1781 1143
1168 1144
1270 1144
1361 1144
1579 1144
1613 1144
1891 1144
1173 1145
1263 1145
1270 1145
1300 1145
1340 1145
1447 1145
1578 1145
1595 1145
1627 1145
1654 1145
1683 1145
1757 1145
1760 1145
1792 1145
1838 1145
1937 1145
1177 1146
1191 1146
1194 1146
1340 1146
1540 1146
1547 1146
1551 1146
1626 1146
1906 1146
1976 1146
1979 1146
1150 1147
1283 1147
1464 1147
1505 1147
1533 1147
1694 1147
1981 1147
1201 1148
1334 1148
1349 1148
1476 1148
1667 1148
1750 1148
1167 1149
1172 1149
1174 1149
1179 1149
1448 1149
1457 1149
1477 1149
1504 1149
1526 1149
1618 1149
1645 1149
1761 1149
1767 1149
1858 1149
1873 1149
1359 1150
1369 1150
1477 1150
1487 1150
1488 1150
1505 1150
1573 1150
1799 1150
1865 1150
1214 1151
1486 1151
1487 1151
1666 1151
1714 1151
1292 1152
1323 1152
1495 1152
1829 1152
1862 1152
1199 1153
1247 1153
1405 1153
1500 1153
1530 1153
1534 1153
1936 1153
1271 1154
1350 1154
1389 1154
1394 1154
1473 1154
1518 1154
1541 1154
1650 1154
1674 1154
1712 1154
1877 1154
1220 1155
1225 1155
1236 1155
1253 1155
1274 1155
1285 1155
1367 1155
1370 1155
1394 1155
1454 1155
1467 1155
1523 1155
1614 1155
1628 1155
1701 1155
1751 1155
1766 1155
1957 1155
2000 1155
1205 1156
1269 1156
1299 1156
1405 1156
1709 1156
1724 1156
1782 1156
1844 1156
1868 1156
1174 1157
1254 1157
1382 1157
1424 1157
1731 1157
1808 1157
1835 1157
1865 1157
1955 1157
1959 1157
1974 1157
1202 1158
1208 1158
1424 1158
1582 1158
1617 1158
1661 1158
1698 1158
1762 1158
1211 1159
1246 1159
1253 1159
1296 1159
1475 1159
1560 1159
1745 1159
1850 1159
1865 1159
1889 1159
1936 1159
1950 1159
1981 1159
1990 1159
1246 1160
1252 1160
1332 1160
1614 1160
1874 1160
1927 1160
1958 1160
1259 1161
1327 1161
1356 1161
1411 1161
1422 1161
1472 1161
1571 1161
1596 1161
1614 1161
1694 1161
1900 1161
1180 1162
1219 1162
1347 1162
1445 1162
1582 1162
1731 1162
1904 1162
1905 1162
1353 1163
1665 1163
1832 1163
1870 1163
1879 1163
1978 1163
1228 1164
1347 1164
1608 1164
1769 1164
1845 1164
1898 1164
1921 1164
1454 1165
1574 1165
1615 1165
1633 1165
1788 1165
1828 1165
1847 1165
1873 1165
1898 1165
1202 1166
1260 1166
1285 1166
1603 1166
1671 1166
1675 1166
1705 1166
1741 1166
1776 1166
1271 1167
1400 1167
1694 1167
1713 1167
1735 1167
1744 1167
1923 1167
1946 1167
1217 1168
1308 1168
1431 1168
1507 1168
1675 1168
1724 1168
1793 1168
1833 1168
1879 1168
1933 1168
1197 1169
1247 1169
1432 1169
1470 1169
1941 1169
1518 1170
1558 1170
1679 1170
1696 1170
1209 1171
1372 1171
1695 1171
1710 1171
1990 1171
1217 1172
1278 1172
1576 1172
1858 1172
1946 1172
1966 1172
1202 1173
1398 1173
1597 1173
1666 1173
1680 1173
1703 1173
1741 1173
1856 1173
1957 1173
1223 1174
1283 1174
1285 1174
1360 1174
1370 1174
1430 1174
1540 1174
1746 1174
1884 1174
1947 1174
1996 1174
1193 1175
1225 1175
1409 1175
1412 1175
1522 1175
1548 1175
1574 1175
1854 1175
1326 1176
1408 1176
1510 1176
1589 1176
1680 1176
1782 1176
1993 1176
1311 1177
1389 1177
1436 1177
1455 1177
1493 1177
1574 1177
1598 1177
1693 1177
1773 1177
1810 1177
1865 1177
1868 1177
1873 1177
1888 1177
1384 1178
1398 1178
1476 1178
1690 1178
1697 1178
1357 1179
1449 1179
1677 1179
1766 1179
1773 1179
1780 1179
1861 1179
1201 1180
1228 1180
1640 1180
1708 1180
1791 1180
1801 1180
1963 1180
1974 1180
1215 1181
1272 1181
1459 1181
1478 1181
1547 1181
1725 1181
1798 1181
1942 1181
1960 1181
1250 1182
1289 1182
1344 1182
1351 1182
1373 1182
1458 1182
1506 1182
1566 1182
1615 1182
1702 1182
1726 1182
1820 1182
1865 1182
1949 1182
1956 1182
1977 1182
1331 1183
1461 1183
1500 1183
1504 1183
1512 1183
1614 1183
1285 1184
1288 1184
1292 1184
1500 1184
1502 1184
1538 1184
1636 1184
1694 1184
1793 1184
1858 1184
1873 1184
1263 1185
1434 1185
1489 1185
1494 1185
1542 1185
1582 1185
1591 1185
1630 1185
1809 1185
1339 1186
1362 1186
1368 1186
1401 1186
1433 1186
1501 1186
1576 1186
1609 1186
1205 1187
1282 1187
1592 1187
1627 1187
1723 1187
1741 1187
1797 1187
1964 1187
1252 1188
1464 1188
1529 1188
1628 1188
1727 1188
1840 1188
1202 1189
1520 1189
1527 1189
1612 1189
1637 1189
1653 1189
1684 1189
1691 1189
1711 1189
1847 1189
1880 1189
1953 1189
1959 1189
1281 1190
1391 1190
1424 1190
1475 1190
1490 1190
1694 1190
1928 1190
1203 1191
1405 1191
1428 1191
1466 1191
1588 1191
1697 1191
1726 1191
1845 1191
1864 1191
1369 1192
1455 1192
1569 1192
1634 1192
1638 1192
1862 1192
1957 1192
1997 1192
1302 1193
1322 1193
1498 1193
1573 1193
1645 1193
1672 1193
1706 1193
1780 1193
1841 1193
1902 1193
1260 1194
1269 1194
1304 1194
1481 1194
1511 1194
1577 1194
1583 1194
1626 1194
1713 1194
1775 1194
1792 1194
1947 1194
1982 1194
1212 1195
1310 1195
1392 1195
1592 1195
1704 1195
1838 1195
1350 1196
1419 1196
1476 1196
1610 1196
1813 1196
1820 1196
1900 1196
1269 1197
1374 1197
1407 1197
1409 1197
1436 1197
1564 1197
1716 1197
1819 1197
1929 1197
1201 1198
1239 1198
1424 1198
1455 1198
1485 1198
1780 1198
1939 1198
1967 1198
1994 1198
1308 1199
1601 1199
1629 1199
1696 1199
1793 1199
1821 1199
1827 1199
1955 1199
1416 1200
1461 1200
1482 1200
1487 1200
1490 1200
1540 1200
1602 1200
1643 1200
1711 1200
1966 1200
1987 1200
1245 1201
1266 1201
1472 1201
1540 1201
1776 1201
1880 1201
2000 1201
1407 1202
1445 1202
1447 1202
1466 1202
1568 1202
1600 1202
1636 1202
1678 1202
1787 1202
1829 1202
1860 1202
1865 1202
1980 1202
1985 1202
1267 1203
1416 1203
1681 1203
1792 1203
1901 1203
1933 1203
1398 1204
1642 1204
1742 1204
1825 1204
1935 1204
1949 1204
1253 1205
1558 1205
1634 1205
1805 1205
1844 1205
1301 1206
1553 1206
1819 1206
1368 1207
1426 1207
1624 1207
1727 1207
1785 1207
1800 1207
1906 1207
1928 1207
1992 1207
1274 1208
1473 1208
1543 1208
1549 1208
1567 1208
1593 1208
1218 1209
1387 1209
1418 1209
1508 1209
1595 1209
1625 1209
1642 1209
1808 1209
1977 1209
1986 1209
1415 1210
1801 1210
1804 1210
1970 1210
1989 1210
1247 1211
1362 1211
1418 1211
1444 1211
1428 1212
1465 1212
1524 1212
1578 1212
1633 1212
1641 1212
1986 1212
1987 1212
1284 1213
1520 1213
1523 1213
1660 1213
1758 1213
1802 1213
1843 1213
1907 1213
1956 1213
1972 1213
1978 1213
1266 1214
1502 1214
1543 1214
1631 1214
1682 1214
1793 1214
1840 1214
1955 1214
1216 1215
1640 1215
1785 1215
1829 1215
1890 1215
1946 1215
1989 1215
1291 1216
1311 1216
1453 1216
1895 1216
1219 1217
1373 1217
1772 1217
1864 1217
1867 1217
1925 1217
1265 1218
1414 1218
1447 1218
1569 1218
1747 1218
1770 1218
1811 1218
1868 1218
1920 1218
1936 1218
1324 1219
1361 1219
1471 1219
1517 1219
1599 1219
1878 1219
1958 1219
1502 1220
1519 1220
1567 1220
1582 1220
1662 1220
1709 1220
1768 1220
1788 1220
1993 1220
1296 1221
1313 1221
1346 1221
1433 1221
1646 1221
1694 1221
1863 1221
1907 1221
1993 1221
1277 1222
1393 1222
1712 1222
1750 1222
1929 1222
1233 1223
1289 1223
1335 1223
1459 1223
1461 1223
1724 1223
1758 1223
1900 1223
1904 1223
1908 1223
1950 1223
1291 1224
1545 1224
1667 1224
1670 1224
1772 1224
1821 1224
1856 1224
1900 1224
1987 1224
1305 1225
1360 1225
1512 1225
1630 1225
1633 1225
1703 1225
1793 1225
1904 1225
1922 1225
1280 1226
1341 1226
1399 1226
1408 1226
1632 1226
1662 1226
1677 1226
1702 1226
1852 1226
1932 1226
1231 1227
1286 1227
1418 1227
1427 1227
1525 1227
1635 1227
1752 1227
1933 1227
1956 1227
1961 1227
1970 1227
1669 1228
1713 1228
1986 1228
1987 1228
1240 1229
1349 1229
1640 1229
1656 1229
1810 1229
1949 1229
1956 1229
1312 1230
1492 1230
1790 1230
1234 1231
1482 1231
1579 1231
1852 1231
1658 1232
1662 1232
1753 1232
1774 1232
1985 1232
1246 1233
1264 1233
1277 1233
1384 1233
1399 1233
1424 1233
1442 1233
1904 1233
1235 1234
1245 1234
1249 1234
1251 1234
1501 1234
1639 1234
1692 1234
1927 1234
1959 1234
1993 1234
1672 1235
1679 1235
1720 1235
1260 1236
1293 1236
1325 1236
1547 1236
1742 1236
1756 1236
1818 1236
1836 1236
1888 1236
1940 1236
1946 1236
1959 1236
1966 1236
1383 1237
1443 1237
1534 1237
1563 1237
1947 1237
1329 1238
1419 1238
1430 1238
1460 1238
1485 1238
1583 1238
1743 1238
1361 1239
1449 1239
1490 1239
1639 1239
1704 1239
1845 1239
1932 1239
1340 1240
1476 1241
1792 1241
1938 1241
1964 1241
1310 1242
1324 1242
1341 1242
1406 1242
1441 1242
1546 1242
1601 1242
1744 1242
1820 1242
1277 1243
1365 1243
1536 1243
1537 1243
1596 1243
1974 1243
1267 1244
1311 1244
1335 1244
1824 1244
1895 1244
1905 1244
1382 1245
1427 1245
1634 1245
1805 1245
1907 1245
1278 1246
1405 1246
1439 1246
1654 1246
1675 1246
1744 1246
1818 1246
1254 1247
1551 1247
1557 1247
1571 1247
1579 1247
1675 1247
1716 1247
1759 1247
1810 1247
1815 1247
1879 1247
1901 1247
1930 1247
1944 1247
1484 1248
1522 1248
1962 1248
1263 1249
1610 1249
1688 1249
1770 1249
1276 1250
1293 1250
1421 1250
1569 1250
1595 1250
1779 1250
1786 1250
1885 1250
1978 1250
1260 1251
1261 1251
1273 1251
1288 1251
1409 1251
1473 1251
1541 1251
1659 1251
1783 1251
1912 1251
1389 1252
1634 1252
1725 1252
1904 1252
1941 1252
1969 1252
1264 1253
1266 1253
1402 1253
1424 1253
1469 1253
1651 1253
1891 1253
1663 1254
1791 1254
1811 1254
1873 1254
1880 1254
1413 1255
1586 1255
1698 1255
1761 1255
1837 1255
1877 1255
1884 1255
1943 1255
1954 1255
1966 1255
1380 1256
1440 1256
1568 1256
1681 1256
1904 1256
1376 1257
1507 1257
1590 1257
1667 1257
1689 1257
1781 1257
1785 1257
1821 1257
1822 1257
1891 1257
1933 1257
1961 1257
1489 1258
1509 1258
1519 1258
1639 1258
1669 1258
1709 1258
1744 1258
1272 1259
1274 1259
1287 1259
1421 1259
1926 1259
1953 1259
1978 1259
1762 1260
1821 1260
1823 1260
1343 1261
1353 1261
1444 1261
1513 1261
1612 1261
1699 1261
1742 1261
1796 1261
1994 1261
1328 1262
1396 1262
1511 1262
1566 1262
1645 1262
1647 1262
1720 1262
1783 1262
1835 1262
1847 1262
1925 1262
1372 1263
1373 1263
1394 1263
1503 1263
1542 1263
1964 1263
1642 1264
1673 1264
1693 1264
1757 1264
1972 1264
1401 1265
1403 1265
1428 1265
1597 1265
1620 1265
1700 1265
1354 1266
1586 1266
1677 1266
1684 1266
1707 1266
1746 1266
1851 1266
1970 1266
1305 1267
1354 1267
1389 1267
1435 1267
1449 1267
1492 1267
1669 1267
1671 1267
1703 1267
1720 1267
1744 1267
1765 1267
1886 1267
1533 1268
1674 1268
1976 1268
1295 1269
1303 1269
1368 1269
1488 1269
1615 1269
1616 1269
1634 1269
1651 1269
1324 1270
1353 1270
1621 1270
1974 1270
1314 1271
1690 1271
1766 1271
1810 1271
1868 1271
1889 1272
1899 1272
1274 1273
1292 1273
1352 1273
1755 1273
1766 1273
1967 1273
1459 1274
1554 1274
1596 1274
1654 1274
1757 1274
1780 1274
1801 1274
1899 1274
1938 1274
1282 1275
1289 1275
1352 1275
1570 1275
1751 1275
1777 1275
1986 1275
1990 1275
1523 1276
1574 1276
1681 1276
1756 1276
1891 1276
1935 1276
1283 1277
1358 1277
1453 1277
1669 1277
1707 1277
1765 1277
1771 1277
1791 1277
1880 1277
1896 1277
1336 1278
1416 1278
1539 1278
1637 1278
1728 1278
1950 1278
1955 1278
1996 1278
1468 1279
1473 1279
1552 1279
1562 1279
1589 1279
1673 1279
1723 1279
1724 1279
1734 1279
1782 1279
1819 1279
1893 1279
1920 1279
1930 1279
1951 1279
1998 1279
1338 1280
1469 1280
1683 1280
1690 1280
1836 1280
1598 1281
1749 1281
1796 1281
1991 1281
1433 1282
1437 1282
1597 1282
1607 1282
1777 1282
1872 1282
1874 1282
1904 1282
1291 1283
1298 1283
1317 1283
1522 1283
1536 1283
1563 1283
1659 1283
1710 1283
1812 1283
1856 1283
1888 1283
1903 1283
1916 1283
1952 1283
1302 1284
1365 1284
1420 1284
1464 1284
1466 1284
1626 1284
1411 1285
1425 1285
1506 1285
1664 1285
1696 1285
1578 1286
1665 1286
1777 1286
1780 1286
1951 1287
1316 1288
1533 1288
1550 1288
1587 1288
1736 1288
1859 1288
1887 1288
1903 1288
1966 1288
1976 1288
1992 1288
1389 1289
1456 1289
1572 1289
1681 1289
1772 1289
1847 1289
1965 1289
1444 1290
1497 1290
1576 1290
1592 1290
1751 1290
1867 1290
1931 1290
1959 1290
1991 1290
1347 1291
1366 1291
1417 1291
1494 1291
1639 1291
1693 1291
1756 1291
1799 1291
1911 1291
1941 1291
1303 1292
1344 1292
1406 1292
1445 1292
1514 1292
1543 1292
1761 1292
1851 1292
1852 1292
1877 1292
1946 1292
1983 1292
1408 1293
1507 1293
1710 1293
1802 1293
1936 1293
1978 1293
1999 1293
1358 1294
1407 1294
1409 1294
1581 1294
1656 1294
1915 1294
1964 1294
1367 1295
1403 1295
1476 1295
1513 1295
1527 1295
1563 1295
1617 1295
1786 1295
1835 1295
1890 1295
1454 1296
1462 1296
1554 1296
1787 1296
1804 1296
1331 1297
1443 1297
1535 1297
1581 1297
1628 1297
1704 1297
1841 1297
1918 1297
1963 1297
1376 1298
1499 1298
1545 1298
1700 1298
1766 1298
1769 1298
1790 1298
1869 1298
1903 1298
1919 1298
1951 1298
1974 1298
1989 1298
1522 1299
1724 1299
1794 1299
1826 1299
1867 1299
1935 1299
1995 1299
1996 1299
1303 1300
1609 1300
1697 1300
1778 1300
1809 1300
1887 1300
1971 1300
1312 1301
1422 1301
1553 1301
1595 1301
1897 1301
1986 1301
1990 1301
1328 1302
1336 1302
1410 1302
1429 1302
1434 1302
1714 1302
1891 1302
1896 1302
1930 1302
1999 1302
1630 1303
1701 1303
1712 1303
1820 1303
1906 1303
1919 1303
1925 1303
1962 1303
1997 1303
1342 1304
1481 1304
1554 1304
1613 1304
1662 1304
1775 1304
1801 1304
1803 1304
1989 1304
1409 1305
1467 1305
1580 1305
1637 1305
1798 1305
1806 1305
1908 1305
1968 1305
1985 1305
1327 1306
1328 1306
1360 1306
1395 1306
1404 1306
1501 1306
1642 1306
1691 1306
1716 1306
1725 1306
1747 1306
1823 1306
1855 1306
1971 1306
1406 1307
1700 1307
1832 1307
1913 1307
1354 1308
1372 1308
1377 1308
1438 1308
1572 1308
1605 1308
1646 1308
1667 1308
1728 1308
1738 1308
1799 1308
1813 1308
1840 1308
1956 1308
1403 1309
1469 1309
1544 1309
1616 1309
1621 1309
1686 1309
1749 1309
1860 1309
1900 1309
1339 1310
1343 1310
1462 1310
1521 1310
1524 1310
1629 1310
1728 1310
1944 1310
1961 1310
1345 1311
1394 1311
1481 1311
1584 1311
1595 1311
1671 1311
1764 1311
1333 1312
1539 1312
1614 1312
1693 1312
1696 1312
1871 1312
1383 1313
1404 1313
1500 1313
1760 1313
1768 1313
1846 1313
1530 1314
1777 1314
1862 1314
1511 1315
1516 1315
1524 1315
1743 1315
1761 1315
1794 1315
1914 1315
1980 1315
1366 1316
1447 1316
1805 1316
1909 1316
1980 1316
1983 1316
1439 1317
1580 1317
1624 1317
1655 1317
1743 1317
1957 1317
1327 1318
1470 1318
1528 1318
1599 1318
1695 1318
1699 1318
1741 1318
1752 1318
1852 1318
1374 1319
1428 1319
1481 1319
1625 1319
1717 1319
1849 1319
1417 1320
1495 1320
1736 1320
1891 1320
1513 1321
1611 1321
1684 1321
1844 1321
1978 1321
1473 1322
1503 1322
1524 1322
1692 1322
1772 1322
1835 1322
1505 1323
1749 1323
1800 1323
1966 1323
1476 1324
1487 1324
1510 1324
1605 1324
1683 1324
1704 1324
1755 1324
1827 1324
1946 1324
1666 1325
1693 1325
1784 1325
1838 1325
1869 1325
1891 1325
1892 1325
1590 1326
1894 1326
1382 1327
1452 1327
1495 1327
1628 1327
1694 1327
1832 1327
1977 1327
1331 1328
1396 1328
1612 1328
1697 1328
1758 1328
1821 1328
1951 1328
1960 1328
1354 1329
1491 1329
1509 1329
1531 1329
1608 1329
1752 1329
1779 1329
1831 1329
1862 1329
1878 1329
1475 1330
1520 1330
1841 1330
1337 1331
1427 1331
1453 1331
1645 1331
1966 1331
1483 1332
1573 1332
1577 1332
1723 1332
1748 1332
1753 1332
1854 1332
1347 1333
1408 1333
1428 1333
1436 1333
1636 1333
1644 1333
1653 1333
1740 1333
1947 1333
1381 1334
1395 1334
1396 1334
1415 1334
1419 1334
1431 1334
1670 1334
1854 1334
1971 1334
1401 1335
1411 1335
1462 1335
1486 1335
1510 1335
1690 1335
1845 1335
1907 1335
1914 1335
1485 1336
1606 1336
1696 1336
1745 1336
1829 1336
1923 1336
1969 1336
1351 1337
1362 1337
1487 1337
1520 1337
1624 1337
1653 1337
1694 1337
1707 1337
1775 1337
1803 1337
1878 1337
1989 1337
1345 1338
1827 1338
1841 1338
1886 1338
1373 1339
1551 1339
1466 1340
1481 1340
1641 1340
1734 1340
1854 1340
1923 1340
1928 1340
1441 1341
1661 1341
1935 1341
1937 1341
1364 1342
1401 1342
1476 1342
1729 1342
1835 1342
1873 1342
1369 1343
1452 1343
1498 1343
1614 1343
1674 1343
1999 1343
1595 1344
1393 1345
1523 1345
1530 1345
1805 1345
1814 1345
1822 1345
1888 1345
1911 1345
1930 1345
1933 1345
1943 1345
1376 1346
1386 1346
1412 1346
1479 1346
1828 1346
1885 1346
1903 1346
1930 1346
1946 1346
1501 1347
1526 1347
1531 1347
1573 1347
1652 1347
1684 1347
1717 1347
1800 1347
1881 1347
1351 1348
1428 1348
1450 1348
1455 1348
1479 1348
1531 1348
1568 1348
1596 1348
1609 1348
1728 1348
1816 1348
1958 1348
1991 1348
1563 1349
1596 1349
1628 1349
1779 1349
1782 1349
1808 1349
1921 1349
1371 1350
1380 1350
1389 1350
1393 1350
1553 1350
1680 1350
1749 1350
1820 1350
1924 1350
1757 1351
1789 1351
1421 1352
1459 1352
1468 1352
1495 1352
1546 1352
1678 1352
1783 1352
1846 1352
1463 1353
1575 1353
1610 1353
1647 1353
1722 1353
1935 1353
1945 1353
1397 1354
1442 1354
1505 1354
1564 1354
1655 1354
1825 1354
1990 1354
1407 1355
1456 1355
1493 1355
1528 1355
1597 1355
1614 1355
1666 1355
1683 1355
1749 1355
1883 1355
1892 1355
1447 1356
1702 1356
1751 1356
1838 1356
1873 1356
1944 1356
1403 1357
1485 1357
1542 1357
1597 1357
1602 1357
1616 1357
1619 1357
1676 1357
1754 1357
1947 1357
1396 1358
1650 1358
1680 1358
1770 1358
1867 1358
1961 1358
1374 1359
1398 1359
1571 1359
1626 1359
1818 1359
1930 1359
1964 1359
1998 1359
1489 1360
1512 1360
1539 1360
1617 1360
1624 1360
1651 1360
1666 1360
1719 1360
1851 1360
1915 1360
1923 1360
1926 1360
1366 1361
1468 1361
1414 1362
1532 1362
1897 1362
1898 1362
1428 1363
1454 1363
1488 1363
1566 1363
1662 1363
1847 1363
1413 1364
1478 1364
1485 1364
1530 1364
1539 1364
1656 1364
1692 1364
1767 1364
1820 1364
1868 1364
1976 1364
1475 1365
1525 1365
1527 1365
1530 1365
1617 1365
1806 1365
1814 1365
1368 1366
1435 1366
1589 1366
1674 1366
1709 1366
1815 1366
1410 1367
1552 1367
1621 1367
1727 1367
1746 1367
1786 1367
1912 1367
1424 1368
1486 1368
1510 1368
1695 1368
1696 1368
1738 1368
1373 1369
1526 1369
1617 1369
1638 1369
1691 1369
1889 1369
1914 1369
1438 1370
1504 1370
1536 1370
1566 1370
1612 1370
1520 1371
1532 1371
1601 1371
1659 1371
1672 1371
1737 1371
1739 1371
1934 1371
1986 1371
1585 1372
1815 1372
1892 1372
1966 1372
1995 1372
1689 1373
1735 1373
1747 1373
1836 1373
1885 1373
1536 1374
1593 1374
1611 1374
1620 1374
1672 1374
1418 1375
1703 1375
1877 1375
1583 1376
1767 1376
1864 1376
1595 1377
1599 1377
1604 1377
1703 1377
1712 1377
1725 1377
1840 1377
1560 1378
1710 1378
1790 1378
1839 1378
1853 1378
1954 1378
1986 1378
1406 1379
1608 1380
1624 1380
1793 1380
1804 1380
1970 1380
1463 1381
1470 1381
1521 1381
1536 1381
1779 1381
2000 1381
1617 1382
1854 1382
1986 1382
1422 1383
1515 1383
1547 1383
1618 1383
1655 1383
1690 1383
1720 1383
1863 1383
1949 1383
1950 1383
1990 1383
1521 1384
1616 1384
1690 1384
1693 1384
1878 1384
1885 1384
1941 1384
1459 1385
1526 1385
1598 1385
1780 1385
1834 1385
1937 1385
1463 1386
1628 1386
1630 1386
1681 1386
1767 1386
1995 1386
1660 1387
1740 1387
1953 1387
1534 1388
1755 1388
1764 1388
1439 1389
1710 1389
1738 1389
1471 1390
1502 1390
1579 1390
1610 1390
1630 1390
1919 1390
1980 1390
1576 1391
1670 1391
1801 1391
1930 1391
1963 1391
1433 1392
1644 1392
1685 1392
2000 1392
1463 1393
1552 1393
1638 1393
1670 1393
1682 1393
1830 1393
1422 1394
1450 1394
1454 1394
1465 1394
1530 1394
1828 1394
1879 1394
1884 1394
1540 1395
1576 1395
1581 1395
1655 1395
1665 1395
1669 1395
1682 1395
1827 1395
1890 1395
1904 1395
1974 1395
1980 1395
1990 1395
1516 1396
1544 1396
1548 1396
1694 1396
1721 1396
1732 1396
1853 1396
1988 1396
1439 1397
1884 1397
1959 1397
1516 1398
1521 1398
1544 1398
1630 1398
1733 1398
1946 1398
1522 1399
1599 1399
1723 1399
1729 1399
1735 1399
1816 1399
1821 1399
1866 1399
1896 1399
1997 1399
1438 1400
1500 1400
1599 1400
1625 1400
1630 1400
1732 1400
1738 1400
1843 1400
1944 1400
1406 1401
1493 1401
1630 1401
1653 1401
1785 1401
1859 1401
1915 1401
1557 1402
1721 1402
1802 1402
1876 1402
1996 1402
1428 1403
1429 1403
1455 1403
1516 1403
1683 1403
1728 1403
1835 1403
1606 1404
1645 1404
1734 1404
1746 1404
1765 1404
1883 1404
1898 1404
1958 1404
1438 1405
1495 1405
1532 1405
1651 1405
1790 1405
1965 1405
1407 1406
1438 1406
1524 1406
1647 1406
1682 1406
1734 1406
1820 1406
1832 1406
1913 1406
1990 1406
1505 1407
1529 1407
1685 1407
1725 1407
1886 1407
1430 1408
1457 1408
1479 1408
1561 1408
1587 1408
1600 1408
1670 1408
1697 1408
1733 1408
1740 1408
1767 1408
1807 1408
1892 1408
1983 1408
1542 1409
1572 1409
1676 1409
1718 1409
1834 1409
1854 1409
1575 1410
1735 1410
1887 1410
1426 1411
1471 1411
1486 1411
1537 1411
1576 1411
1736 1411
1779 1411
1821 1411
1841 1411
1858 1411
1864 1411
1908 1411
1460 1412
1475 1412
1527 1412
1555 1412
1696 1412
1768 1412
1800 1412
1510 1413
1524 1413
1611 1413
1800 1413
1831 1413
1956 1413
1419 1414
1442 1414
1512 1414
1706 1414
1709 1414
1913 1414
1936 1414
1966 1414
1416 1415
1591 1415
1766 1415
1855 1415
1890 1415
1908 1415
1953 1415
1957 1415
1465 1416
1561 1416
1598 1416
1660 1416
1741 1416
1769 1416
1822 1416
1823 1416
1859 1416
1966 1416
1996 1416
1507 1417
1679 1417
1726 1417
1745 1417
1783 1417
1962 1417
1716 1418
1765 1418
1813 1418
1834 1418
1925 1418
1424 1419
1538 1419
1738 1419
1842 1419
1873 1419
1927 1419
1451 1420
1627 1420
1629 1420
1740 1420
1770 1420
1791 1420
1444 1421
1567 1421
1672 1421
1719 1421
1954 1421
1471 1422
1487 1422
1491 1422
1540 1422
1634 1422
1879 1422
1695 1423
1832 1423
1942 1423
1469 1424
1588 1424
1631 1424
1699 1424
1852 1424
1908 1424
1517 1425
1610 1425
1692 1425
1814 1425
1457 1426
1597 1426
1605 1426
1787 1426
1906 1426
1961 1426
1489 1427
1542 1427
1549 1427
1623 1427
1767 1427
1802 1427
1898 1427
1940 1427
1942 1427
1456 1428
1843 1428
1899 1428
1990 1428
1514 1429
1577 1429
1710 1429
1855 1429
1633 1430
1656 1430
1667 1430
1846 1430
1889 1430
1956 1430
1960 1430
1512 1431
1685 1431
1717 1431
1785 1431
1966 1431
1985 1431
1438 1432
1555 1432
1624 1432
1675 1432
1793 1432
1874 1432
1942 1432
1493 1433
1523 1433
1588 1433
1597 1433
1658 1433
1678 1433
1830 1433
1888 1433
1905 1433
1959 1433
1497 1435
1508 1435
1744 1435
1803 1435
1866 1435
1883 1435
1437 1436
1469 1436
1482 1436
1584 1436
1806 1436
1878 1436
1990 1436
1505 1437
1568 1437
1594 1437
1796 1437
1801 1437
1807 1437
1964 1437
1461 1438
1599 1438
1688 1438
1703 1438
1868 1438
1981 1438
1520 1439
1535 1439
1630 1439
1692 1439
1997 1439
1566 1440
1642 1440
1713 1440
1788 1440
1830 1440
1530 1441
1638 1441
1880 1441
1890 1441
1925 1441
1951 1441
1983 1441
1993 1441
1498 1442
1505 1442
1657 1442
1788 1442
1847 1442
1878 1442
1987 1442
1516 1443
1551 1443
1591 1443
1666 1443
1768 1443
1904 1443
1466 1444
1535 1444
1696 1444
1706 1444
1730 1444
1749 1444
1753 1444
1856 1444
1972 1444
1497 1445
1557 1445
1569 1445
1682 1445
1718 1445
1958 1445
1541 1446
1708 1446
1827 1446
1611 1447
1666 1447
1688 1447
1882 1447
1910 1447
1461 1448
1608 1448
1627 1448
1680 1448
1960 1448
1478 1449
1485 1449
1489 1449
1671 1449
1696 1449
1788 1449
1848 1449
1916 1449
1990 1449
1511 1450
1513 1450
1537 1450
1547 1450
1711 1450
1719 1450
1913 1450
1959 1450
1983 1450
1570 1451
1592 1451
1766 1451
1967 1451
1996 1451
1495 1452
1580 1452
1628 1452
1738 1452
1750 1452
1918 1452
1928 1452
1493 1453
1602 1453
1861 1453
1994 1453
1512 1454
1565 1454
1701 1454
1805 1454
1875 1454
1905 1454
1556 1455
1559 1455
1631 1455
1823 1455
1836 1455
1844 1455
1532 1456
1545 1456
1600 1456
1802 1456
1959 1456
1496 1457
1655 1457
1695 1457
1703 1457
1755 1457
1790 1457
1853 1457
1891 1457
1548 1458
1618 1458
1937 1458
1962 1458
1586 1459
1606 1459
1877 1459
1967 1459
1473 1460
1478 1460
1665 1460
1865 1460
1922 1460
1656 1461
1719 1461
1761 1461
1829 1461
1955 1461
1481 1462
1641 1462
1697 1462
1750 1462
1758 1462
1861 1462
1494 1463
1527 1463
1569 1463
1664 1463
1853 1463
1880 1463
1882 1463
1475 1464
1689 1464
1944 1464
1538 1465
1567 1465
1776 1465
1841 1465
1911 1465
1940 1465
1956 1465
1501 1466
1550 1466
1553 1466
1632 1466
1908 1466
1506 1467
1643 1467
1702 1467
1845 1467
1866 1467
1873 1467
1915 1467
1942 1467
1953 1467
1967 1467
1541 1468
1547 1468
1565 1468
1579 1468
1599 1468
1744 1468
1472 1469
1534 1469
1688 1469
1835 1469
1547 1470
1625 1470
1666 1470
1682 1470
1844 1470
1855 1470
1559 1471
1735 1471
1932 1471
1949 1471
1538 1472
1621 1472
1679 1472
1823 1472
1835 1472
1947 1472
1969 1472
1992 1472
1549 1473
1586 1473
1728 1473
1769 1473
1807 1473
1979 1473
1986 1473
1604 1474
1782 1474
1851 1474
1537 1475
1556 1475
1814 1475
1817 1475
1531 1476
1611 1476
1706 1476
1950 1476
1766 1477
1905 1477
1928 1477
1541 1478
1670 1478
1682 1478
1683 1478
1704 1478
1803 1478
1850 1478
1929 1478
1800 1479
1811 1479
1833 1479
1960 1479
1681 1480
1797 1480
1952 1480
1552 1481
1651 1481
1654 1481
1509 1482
1524 1482
1590 1482
1599 1482
1618 1482
1645 1482
1521 1483
1581 1483
1613 1483
1692 1483
1786 1483
1788 1483
1903 1483
1946 1483
1713 1484
1746 1484
1914 1484
1642 1485
1659 1485
1760 1485
1828 1485
1850 1485
1905 1485
1991 1485
1602 1486
1632 1486
1760 1486
1597 1487
1864 1487
1584 1488
1626 1488
1665 1488
1859 1489
1997 1489
1504 1490
1767 1490
1860 1490
1508 1491
1615 1491
1722 1491
1918 1491
1931 1491
1634 1492
1708 1492
1618 1493
1667 1493
1807 1493
1886 1493
1699 1494
1784 1494
1866 1494
1872 1494
1964 1494
1787 1495
1791 1495
1931 1495
1566 1496
1699 1496
1725 1496
1799 1496
1862 1496
1501 1497
1602 1497
1652 1497
1691 1497
1809 1497
1865 1497
1896 1497
1951 1497
1962 1497
1986 1497
1509 1498
1595 1498
1829 1498
1903 1498
1993 1498
1555 1499
1914 1499
1975 1499
1982 1499
1541 1500
1648 1500
1670 1500
1775 1500
1779 1500
1861 1500
1589 1501
1699 1501
1701 1501
1847 1501
1602 1502
1774 1502
1825 1502
1882 1502
1556 1503
1781 1503
1983 1503
1538 1504
1562 1504
1598 1504
1681 1504
1702 1504
1747 1504
1703 1505
1944 1505
1581 1506
1589 1506
1633 1506
1776 1506
1780 1506
1798 1506
1807 1506
1812 1506
1880 1506
1884 1506
1975 1506
1547 1507
1619 1507
1660 1507
1680 1507
1738 1507
1518 1508
1743 1508
1892 1508
1920 1508
1997 1508
1819 1509
1667 1510
1675 1510
1796 1510
1832 1510
1920 1510
1895 1511
1953 1511
1526 1512
1577 1512
1741 1512
1776 1512
1544 1513
1595 1513
1682 1513
1734 1513
1879 1513
1586 1514
1620 1514
1722 1514
1805 1514
1909 1514
1945 1514
1959 1514
1585 1515
1595 1515
1713 1515
1953 1515
1577 1516
1647 1516
1685 1516
1752 1516
1591 1517
1608 1517
1611 1517
1676 1517
1694 1517
1905 1518
1982 1518
1992 1518
1640 1519
1694 1519
1768 1519
1855 1519
1868 1519
1871 1519
1783 1520
1789 1520
1838 1520
1870 1520
1881 1520
1913 1520
1626 1521
1643 1521
1825 1521
1830 1521
1981 1521
1523 1522
1529 1522
1637 1522
1645 1522
1825 1522
1961 1522
1964 1522
1577 1523
1732 1523
1885 1523
1910 1523
1988 1523
1741 1524
1906 1524
1535 1525
1618 1525
1919 1525
1994 1525
1675 1526
1710 1526
1812 1526
1607 1527
1631 1527
1694 1527
1721 1527
1801 1527
1948 1527
1977 1527
1776 1528
1667 1529
1686 1529
1794 1529
1843 1529
1925 1529
1959 1529
1713 1530
1863 1530
1944 1530
1594 1532
1604 1532
1771 1532
1788 1532
1984 1532
1633 1533
1645 1533
1705 1533
1542 1534
1625 1534
1653 1534
1809 1534
1939 1534
1991 1534
1544 1535
1676 1535
1754 1535
1872 1535
1899 1535
1630 1536
1653 1536
1790 1536
1985 1536
1633 1537
1644 1537
1680 1537
1684 1537
1790 1537
1809 1537
1923 1537
1577 1538
1605 1538
1621 1538
1659 1538
1709 1538
1995 1538
1549 1539
1551 1539
1589 1539
1602 1539
1724 1539
1811 1539
1888 1539
1606 1540
1731 1540
1869 1540
1590 1541
1609 1541
1654 1541
1754 1541
1764 1541
1553 1542
1717 1542
1960 1542
1741 1543
1863 1543
1967 1543
1559 1544
1573 1544
1633 1544
1635 1544
1879 1544
1908 1544
1970 1544
1984 1544
1634 1545
1770 1545
1784 1545
1904 1545
1644 1546
1645 1546
1702 1546
1739 1546
1882 1546
1923 1546
1936 1546
1646 1547
1760 1547
1865 1547
1911 1547
1976 1547
1664 1548
1670 1548
1853 1548
1859 1548
1877 1548
1749 1549
1890 1549
1903 1549
1945 1549
1690 1550
1793 1550
1887 1550
1997 1550
2000 1550
1640 1551
1657 1551
1908 1551
1959 1551
1553 1552
1730 1552
1732 1552
1753 1552
1994 1552
1556 1553
1655 1553
1678 1553
1699 1553
1720 1553
1967 1553
1612 1554
1810 1554
1836 1554
1626 1555
1640 1555
1827 1555
1997 1555
1645 1556
1802 1556
1807 1556
1882 1556
1637 1557
1664 1557
1805 1557
1839 1557
1577 1558
1619 1558
1709 1558
1762 1558
1788 1558
1841 1558
1888 1558
1994 1558
1568 1559
1643 1559
1702 1559
1707 1559
1783 1559
1914 1559
1828 1560
1916 1560
1606 1561
1646 1561
1819 1561
1938 1561
1989 1561
1753 1562
1767 1562
1913 1562
1715 1563
1753 1563
1833 1564
1917 1564
1659 1565
1761 1565
1785 1565
1816 1565
1873 1565
1581 1566
1627 1566
1801 1566
1805 1566
1720 1567
1803 1567
1804 1567
1882 1567
1615 1568
1647 1568
1690 1568
1818 1568
1662 1569
1754 1569
1814 1569
1991 1569
1590 1570
1912 1570
1707 1571
1724 1571
1753 1571
1784 1571
1819 1571
1940 1571
1629 1572
1969 1572
1983 1572
1953 1573
1598 1574
1662 1574
1710 1574
1726 1574
1754 1574
1970 1574
1660 1575
1785 1575
1827 1575
1977 1575
1610 1576
1645 1576
1670 1576
1671 1576
1852 1576
1936 1576
1743 1577
1824 1577
1592 1578
1607 1578
1660 1578
1664 1578
1702 1578
1793 1578
1829 1578
1834 1578
1884 1578
1919 1578
1949 1578
1593 1579
1628 1579
1648 1579
1709 1579
1776 1579
1840 1579
1751 1580
1879 1580
1586 1581
1887 1581
1903 1581
1936 1581
1773 1582
1842 1582
1847 1582
1974 1582
1988 1582
1739 1583
1941 1583
1718 1584
1803 1584
1703 1585
1975 1585
1666 1586
1816 1586
1990 1586
1738 1587
1864 1587
1888 1587
1681 1588
1716 1588
1723 1588
1863 1588
1730 1589
1871 1589
1886 1589
1962 1589
1605 1590
1639 1590
1839 1590
1773 1591
1876 1591
1900 1591
1925 1591
1615 1592
1616 1592
1627 1592
1689 1592
1743 1592
1817 1592
1868 1592
1888 1592
1902 1592
1970 1592
1995 1592
1673 1593
1679 1593
1785 1593
1842 1593
1950 1593
1624 1594
1825 1594
1843 1594
1849 1594
1994 1594
1762 1595
1886 1595
1697 1596
1881 1596
1665 1597
1668 1597
1683 1597
1712 1597
1716 1597
1738 1597
1744 1597
1750 1597
1851 1597
1778 1598
1984 1598
1629 1599
1674 1599
1684 1599
1700 1600
1926 1600
1693 1601
1725 1602
1799 1602
1822 1602
1662 1603
1679 1603
1691 1603
1823 1603
1728 1604
1712 1605
1760 1605
1809 1605
1847 1605
1643 1606
1698 1606
1842 1606
1866 1606
1948 1606
1680 1607
1763 1607
1882 1607
1942 1607
1710 1608
1802 1608
1844 1608
1880 1608
1888 1608
1637 1609
1656 1609
1765 1609
1856 1609
1940 1609
1968 1609
1660 1610
1920 1610
1975 1610
1669 1611
1751 1612
1877 1612
1906 1612
1934 1612
1965 1612
1906 1613
1963 1613
1671 1614
1735 1614
1762 1614
1775 1614
1840 1614
1788 1615
1803 1615
1671 1616
1717 1616
1850 1616
1875 1616
1937 1616
1995 1616
1803 1617
1804 1617
1901 1617
1699 1618
1784 1618
1852 1618
1876 1618
1645 1619
1774 1619
1824 1619
1856 1619
1867 1619
1954 1619
1985 1619
1664 1620
1703 1620
1711 1620
1825 1620
1885 1620
1911 1620
1930 1620
1981 1620
1995 1620
1688 1621
1737 1621
1756 1621
1795 1621
1898 1621
1687 1622
1722 1622
1739 1622
1826 1622
1970 1622
1625 1623
1666 1623
1691 1623
1787 1623
1795 1623
1821 1623
1934 1623
1684 1625
1689 1625
1690 1625
1761 1625
1778 1625
1782 1625
1796 1625
1945 1625
1983 1625
1669 1626
1699 1626
1745 1626
1834 1626
1684 1627
1711 1627
1872 1627
1942 1627
1847 1628
1910 1628
1971 1628
1637 1629
1654 1629
1666 1629
1714 1629
1727 1629
1763 1629
1859 1629
1891 1629
1807 1630
1845 1630
1865 1630
1908 1630
1942 1631
1956 1631
1708 1632
1781 1632
1847 1632
1892 1632
1906 1632
1917 1632
1927 1632
1964 1632
1676 1633
1719 1633
1759 1633
1881 1633
1681 1634
1811 1634
1981 1634
1858 1635
1929 1635
1976 1635
1819 1636
1979 1636
1639 1637
1716 1637
1717 1637
1855 1637
1969 1637
1693 1639
1829 1639
1957 1639
1676 1641
1767 1641
1868 1641
1973 1641
1845 1642
1874 1642
1891 1642
1893 1642
1791 1643
1661 1644
1733 1644
1739 1644
1832 1644
1871 1644
1932 1644
1692 1645
1907 1645
1701 1646
1809 1646
1783 1647
1821 1647
1861 1647
1779 1648
1785 1648
1898 1648
1901 1648
1930 1648
1671 1649
1686 1649
1796 1650
1932 1650
1971 1650
1674 1651
1690 1651
1715 1651
1855 1651
1885 1651
1967 1651
1811 1652
1829 1652
1834 1652
1676 1653
1944 1653
1992 1653
1675 1654
1724 1654
1738 1654
1775 1654
1879 1654
1956 1654
1668 1655
1686 1655
1883 1655
1925 1655
1930 1655
1949 1655
1660 1656
1702 1656
1714 1656
1853 1656
1740 1657
1811 1657
1849 1657
1772 1658
1782 1659
1793 1659
1908 1659
1739 1660
1741 1660
1785 1660
1808 1660
1873 1660
1888 1660
1958 1660
1712 1661
1807 1661
1890 1661
1679 1662
1776 1662
1936 1662
1966 1662
1991 1662
1688 1663
1744 1663
1840 1663
1855 1663
1840 1664
1851 1664
1899 1665
1940 1665
1958 1665
1961 1665
1688 1666
1701 1666
1721 1666
1872 1666
1988 1666
1775 1667
1836 1667
1909 1667
1967 1667
1981 1667
1688 1668
1758 1668
1829 1668
1861 1668
1926 1668
1964 1668
1742 1670
1772 1670
1895 1670
1971 1670
1798 1671
1969 1671
1732 1672
1703 1673
1799 1673
1879 1673
1919 1673
1928 1674
1975 1674
1762 1675
1801 1675
1814 1675
1851 1675
1877 1675
1933 1675
1773 1676
1850 1676
1939 1676
1985 1676
1875 1677
1916 1677
1773 1678
1956 1678
1680 1679
1803 1679
1820 1679
1848 1680
1686 1681
1735 1681
1750 1681
1813 1681
1960 1681
1735 1682
1870 1682
1903 1682
1915 1682
1959 1682
1768 1683
1776 1684
1806 1684
1886 1684
1924 1684
1970 1684
1888 1685
1894 1685
1841 1686
1931 1686
1972 1686
1737 1687
1780 1687
1845 1687
1712 1688
1802 1689
1848 1689
1889 1689
1700 1690
1767 1690
1962 1690
1708 1691
1985 1691
1744 1692
1865 1692
1906 1692
1923 1692
1755 1693
1778 1693
1917 1693
1981 1693
1984 1694
1795 1695
1827 1695
1976 1695
1772 1696
1992 1696
1748 1697
1755 1697
1879 1697
1892 1697
1991 1697
1827 1698
1957 1698
1992 1698
1714 1699
1956 1699
1926 1700
1973 1700
1723 1701
1745 1702
1756 1702
1948 1702
1829 1703
1866 1703
1912 1703
1749 1704
1982 1704
1778 1705
1813 1705
1798 1706
1947 1706
1734 1707
1862 1707
1863 1707
1876 1707
1839 1709
1776 1710
1825 1710
1867 1710
1976 1710
1890 1711
1801 1712
1899 1712
1722 1713
1850 1713
1890 1713
1952 1713
1824 1714
1910 1714
1824 1715
1860 1715
1879 1715
1745 1716
1876 1716
1980 1716
1987 1716
1725 1717
1912 1717
1859 1718
1740 1719
1805 1719
1848 1719
1825 1720
1896 1720
1947 1721
1822 1722
1827 1722
1840 1722
1767 1723
1795 1723
1859 1723
1910 1723
1775 1724
1894 1724
1999 1724
1765 1725
1778 1725
1910 1725
1986 1725
1795 1726
1869 1726
1875 1726
1950 1726
1826 1727
1903 1727
1981 1727
1993 1727
1890 1728
1929 1728
1762 1729
1765 1729
1936 1729
1793 1730
1900 1730
1867 1731
1896 1731
1982 1731
1882 1732
1997 1732
1836 1734
1839 1734
1881 1734
1891 1734
1931 1734
1779 1735
1803 1735
1865 1735
1773 1736
1777 1736
1794 1736
1802 1736
1821 1736
1853 1736
1941 1736
1994 1736
1804 1737
1818 1738
1883 1738
1887 1738
1941 1738
1977 1738
1998 1738
1756 1739
1827 1739
1838 1739
1931 1739
1775 1740
1799 1740
1755 1741
1868 1741
1985 1741
1891 1742
1897 1742
1884 1743
1986 1743
1766 1744
1830 1744
1919 1744
1831 1745
1849 1745
1954 1745
1992 1745
1805 1746
1859 1746
1901 1746
1836 1747
1814 1748
1881 1748
1966 1748
1988 1748
1999 1748
1796 1749
1812 1749
1934 1749
1792 1750
1814 1750
1821 1750
1822 1750
1883 1750
1754 1751
1852 1751
1895 1751
1983 1751
1806 1752
1854 1752
1760 1753
1855 1753
1929 1753
1766 1754
1875 1754
1960 1755
1766 1756
1785 1757
1797 1757
1910 1757
1994 1757
1774 1758
1842 1759
1767 1760
1793 1760
1881 1760
1995 1760
1801 1761
1929 1761
1969 1761
2000 1761
1813 1762
1848 1762
1944 1762
1776 1763
1791 1763
1870 1763
1877 1763
1892 1763
1819 1764
1886 1764
1953 1764
1960 1764
1807 1765
1998 1765
1889 1766
1888 1767
1826 1768
1853 1768
1955 1768
1991 1768
1995 1768
1826 1769
1975 1770
1824 1772
1870 1772
1927 1772
1913 1773
1969 1773
1882 1774
1880 1775
1913 1775
1943 1775
1966 1775
1797 1776
1872 1776
1860 1777
1912 1777
1937 1777
1793 1778
1822 1779
1891 1779
1811 1780
1791 1781
1862 1781
1969 1781
1800 1782
1811 1782
1873 1782
1902 1782
1997 1782
1817 1783
1789 1784
1820 1784
1946 1784
1854 1785
1918 1785
1828 1786
1829 1786
1832 1786
1934 1788
1948 1788
1985 1788
1892 1789
1984 1789
1928 1790
1810 1791
1827 1791
1917 1792
1871 1793
1876 1793
1899 1793
1949 1793
1965 1793
1868 1794
1900 1794
1911 1794
1857 1796
1994 1796
1992 1797
1826 1798
1834 1798
1904 1798
1852 1799
1885 1800
1989 1801
1866 1802
1866 1803
1880 1803
1828 1804
1843 1804
1860 1804
1863 1804
1906 1804
1926 1804
1835 1805
1999 1805
1825 1806
1959 1806
1971 1807
1859 1812
1905 1812
1973 1813
1846 1814
1817 1815
1824 1815
1847 1815
1859 1815
1906 1815
1986 1815
1868 1816
1923 1816
1938 1816
1996 1816
1885 1817
1832 1818
1876 1818
1912 1819
1926 1821
1976 1822
1842 1823
1964 1823
1870 1824
1898 1824
1996 1824
1862 1825
1897 1825
1934 1825
1979 1826
1845 1827
1870 1829
1954 1829
1995 1830
1870 1831
1869 1832
1972 1833
1996 1834
1838 1835
1923 1835
1976 1835
1988 1835
1929 1836
1961 1836
1854 1838
1922 1838
1919 1839
1996 1839
1922 1840
1950 1840
1942 1842
1934 1843
1900 1845
1860 1849
1931 1849
1935 1849
1940 1850
1945 1850
1920 1851
1921 1851
1933 1851
1897 1852
1911 1853
1885 1855
1861 1856
1902 1856
1919 1857
1973 1857
1986 1857
1996 1859
1932 1860
1929 1862
1953 1862
1966 1863
1910 1865
1914 1865
1975 1865
1886 1866
1908 1866
1928 1866
1943 1866
1946 1866
1886 1868
1916 1869
1962 1870
1951 1872
1894 1873
1931 1873
1951 1874
1953 1875
1994 1875
1879 1876
1931 1876
1901 1877
1998 1877
1887 1878
1902 1878
1964 1879
1929 1882
1938 1883
1967 1884
1887 1885
1915 1887
1943 1887
1947 1888
1960 1888
1969 1888
1997 1888
1999 1889
1943 1890
1899 1891
1920 1891
1902 1896
1936 1897
1985 1898
1992 1900
1993 1901
1943 1902
1970 1902
1988 1903
1922 1904
1968 1904
1974 1905
1997 1905
1994 1906
1976 1907
1987 1908
1990 1908
1918 1909
1925 1909
1939 1909
1955 1909
1999 1909
1945 1910
1994 1911
1994 1912
1934 1913
1981 1913
1983 1917
1940 1918
1924 1919
1977 1920
1954 1921
1973 1924
1997 1925
1956 1929
1979 1929
1994 1929
1962 1931
1936 1932
1979 1932
1992 1933
1977 1934
1958 1937
1974 1937
2000 1937
1992 1939
1980 1942
1973 1943
1982 1947
1986 1948
1957 1949
1959 1951
1985 1952
1968 1953
1998 1953
1968 1954
1958 1957
1978 1958
1989 1958
1994 1958
1965 1963
1996 1963
1992 1965
1988 1967
1978 1969
1994 1970
1978 1973
2000 1989
